     Program PWSCF v.7.1 starts on 27Nov2023 at 22: 8: 1

     Reading input from k5al3h14.in

     Current dimensions of program PWSCF are:
     Max number of different atomic species (ntypx) = 10
     Max number of k-points (npk) =  40000
     Max angular momentum in pseudopotentials (lmaxx) =  4
     file Al.pbe-n-kjpaw_psl.1.0.0.UPF: wavefunction(s)  3S 3P renormalized
     file K.pbe-spn-kjpaw_psl.1.0.0.UPF: wavefunction(s)  3S renormalized

     IMPORTANT: XC functional enforced from input :
     Exchange-correlation= PBE
                           (   1   4   3   4   0   0   0)
     Any further DFT definition will be discarded
     Please, verify this is what you really want

     Message from routine setup:
     using ibrav=0 with symmetry is DISCOURAGED, use correct ibrav instead

     K-points division:     npool     =       3
     R & G space division:  proc/nbgrp/npool/nimage =      48
     Subspace diagonalization in iterative solution of the eigenvalue problem:
     a serial algorithm will be used

     Using Slab Decomposition

     bravais-lattice index     =            0
     lattice parameter (alat)  =      13.6251  a.u.
     unit-cell volume          =    4073.9414 (a.u.)^3
     number of atoms/cell      =           44
     number of atomic types    =            3
     number of electrons       =       136.00
     number of Kohn-Sham states=           82
     kinetic-energy cutoff     =      75.0000  Ry
     charge density cutoff     =     375.0000  Ry
     scf convergence threshold =      1.0E-08
     mixing beta               =       0.7000
     number of iterations used =            8  plain     mixing
     energy convergence thresh.=      1.0E-04
     force convergence thresh. =      1.0E-03
     Exchange-correlation= PBE
                           (   1   4   3   4   0   0   0)
     nstep                     =           50

     celldm(1)=  13.625077  celldm(2)=   0.000000  celldm(3)=   0.000000
     celldm(4)=   0.000000  celldm(5)=   0.000000  celldm(6)=   0.000000

     crystal axes: (cart. coord. in units of alat)
               a(1) = (   1.000000   0.000000   0.000000 )
               a(2) = (   0.000000   1.000000   0.000000 )
               a(3) = (   0.000000   0.000000   1.610638 )

     reciprocal axes: (cart. coord. in units 2 pi/alat)
               b(1) = (  1.000000  0.000000  0.000000 )
               b(2) = (  0.000000  1.000000  0.000000 )
               b(3) = (  0.000000  0.000000  0.620872 )

     PseudoPot. # 1 for Al read from file:
     /home/garima.iitr/.cache/.es/compmat/kalh4/Al.pbe-n-kjpaw_psl.1.0.0.UPF
     MD5 check sum: 502b6b27b9c6270cab5dd1084b96fa6d
     Pseudo is Projector augmented-wave + core cor, Zval =  3.0
     Generated using &quot;atomic&quot; code by A. Dal Corso  v.6.3
     Shape of augmentation charge: PSQ
     Using radial grid of 1135 points,  6 beta functions with:
                l(1) =   0
                l(2) =   0
                l(3) =   1
                l(4) =   1
                l(5) =   2
                l(6) =   2
     Q(r) pseudized with 0 coefficients

     PseudoPot. # 2 for H  read from file:
     /home/garima.iitr/.cache/.es/compmat/kalh4/H.pbe-rrkjus_psl.1.0.0.UPF
     MD5 check sum: 3f4114867bd07edc7f1424d066fc1888
     Pseudo is Ultrasoft, Zval =  1.0
     Generated using &quot;atomic&quot; code by A. Dal Corso  v.6.3MaX
     Using radial grid of  929 points,  2 beta functions with:
                l(1) =   0
                l(2) =   0
     Q(r) pseudized with 0 coefficients

     PseudoPot. # 3 for K  read from file:
     /home/garima.iitr/.cache/.es/compmat/kalh4/K.pbe-spn-kjpaw_psl.1.0.0.UPF
     MD5 check sum: 34cc42130a09071ebe376fd42eb21491
     Pseudo is Projector augmented-wave + core cor, Zval =  9.0
     Generated using &quot;atomic&quot; code by A. Dal Corso  v.6.2.2
     Shape of augmentation charge: PSQ
     Using radial grid of 1165 points,  6 beta functions with:
                l(1) =   0
                l(2) =   0
                l(3) =   1
                l(4) =   1
                l(5) =   2
                l(6) =   2
     Q(r) pseudized with 0 coefficients

     atomic species   valence    mass     pseudopotential
        Al             3.00    26.98100     Al( 1.00)
        H              1.00     1.00750     H ( 1.00)
        K              9.00    39.09830     K ( 1.00)

     16 Sym. Ops., with inversion, found ( 8 have fractional translation)

   Cartesian axes

     site n.     atom                  positions (alat units)
         1           K   tau(   1) = (   0.0000000   0.0000000   0.8053190  )
         2           K   tau(   2) = (   0.5000000   0.5000000   0.0000000  )
         3           K   tau(   3) = (   0.2873500   0.7873500   0.4026595  )
         4           K   tau(   4) = (   0.2126500   0.2873500   0.4026595  )
         5           K   tau(   5) = (   0.7126500   0.2126500   0.4026595  )
         6           K   tau(   6) = (   0.2126500   0.2873500   1.2079785  )
         7           K   tau(   7) = (   0.7126500   0.2126500   1.2079785  )
         8           K   tau(   8) = (   0.7873500   0.7126500   0.4026595  )
         9           K   tau(   9) = (   0.7873500   0.7126500   1.2079785  )
        10           K   tau(  10) = (   0.2873500   0.7873500   1.2079785  )
        11           Al  tau(  11) = (   0.0000000   0.0000000   0.0000000  )
        12           Al  tau(  12) = (   0.5000000   0.5000000   0.8053190  )
        13           Al  tau(  13) = (   0.0000000   0.5000000   0.0000000  )
        14           Al  tau(  14) = (   0.5000000   0.0000000   0.8053190  )
        15           Al  tau(  15) = (   0.0000000   0.5000000   0.8053190  )
        16           Al  tau(  16) = (   0.5000000   0.0000000   0.0000000  )
        17           H   tau(  17) = (   0.5438000   0.8200500   0.1892661  )
        18           H   tau(  18) = (   0.9562000   0.3200500   0.6160529  )
        19           H   tau(  19) = (   0.6799500   0.9562000   0.6160529  )
        20           H   tau(  20) = (   0.9562000   0.3200500   0.9945850  )
        21           H   tau(  21) = (   0.6799500   0.9562000   0.9945850  )
        22           H   tau(  22) = (   0.4562000   0.1799500   0.1892661  )
        23           H   tau(  23) = (   0.8200500   0.4562000   0.1892661  )
        24           H   tau(  24) = (   0.4562000   0.1799500   1.4213719  )
        25           H   tau(  25) = (   0.8200500   0.4562000   1.4213719  )
        26           H   tau(  26) = (   0.1799500   0.5438000   0.1892661  )
        27           H   tau(  27) = (   0.5438000   0.8200500   1.4213719  )
        28           H   tau(  28) = (   0.1799500   0.5438000   1.4213719  )
        29           H   tau(  29) = (   0.0438000   0.6799500   0.6160529  )
        30           H   tau(  30) = (   0.3200500   0.0438000   0.6160529  )
        31           H   tau(  31) = (   0.0438000   0.6799500   0.9945850  )
        32           H   tau(  32) = (   0.3200500   0.0438000   0.9945850  )
        33           H   tau(  33) = (   0.0000000   0.0000000   0.2746138  )
        34           H   tau(  34) = (   0.5000000   0.5000000   0.5307052  )
        35           H   tau(  35) = (   0.5000000   0.5000000   1.0799327  )
        36           H   tau(  36) = (   0.0000000   0.0000000   1.3360242  )
        37           H   tau(  37) = (   0.7523700   0.0751200   0.0000000  )
        38           H   tau(  38) = (   0.7476300   0.5751200   0.8053190  )
        39           H   tau(  39) = (   0.4248800   0.7476300   0.8053190  )
        40           H   tau(  40) = (   0.2476300   0.9248800   0.0000000  )
        41           H   tau(  41) = (   0.0751200   0.2476300   0.0000000  )
        42           H   tau(  42) = (   0.9248800   0.7523700   0.0000000  )
        43           H   tau(  43) = (   0.2523700   0.4248800   0.8053190  )
        44           H   tau(  44) = (   0.5751200   0.2523700   0.8053190  )

     number of k points=    40  Marzari-Vanderbilt smearing, width (Ry)=  0.0050
                       cart. coord. in units 2pi/alat
        k(    1) = (   0.0000000   0.0000000   0.0000000), wk =   0.0092593
        k(    2) = (   0.0000000   0.0000000   0.1034787), wk =   0.0185185
        k(    3) = (   0.0000000   0.0000000   0.2069573), wk =   0.0185185
        k(    4) = (   0.0000000   0.0000000  -0.3104360), wk =   0.0092593
        k(    5) = (   0.0000000   0.1666667   0.0000000), wk =   0.0370370
        k(    6) = (   0.0000000   0.1666667   0.1034787), wk =   0.0740741
        k(    7) = (   0.0000000   0.1666667   0.2069573), wk =   0.0740741
        k(    8) = (   0.0000000   0.1666667  -0.3104360), wk =   0.0370370
        k(    9) = (   0.0000000   0.3333333   0.0000000), wk =   0.0370370
        k(   10) = (   0.0000000   0.3333333   0.1034787), wk =   0.0740741
        k(   11) = (   0.0000000   0.3333333   0.2069573), wk =   0.0740741
        k(   12) = (   0.0000000   0.3333333  -0.3104360), wk =   0.0370370
        k(   13) = (   0.0000000  -0.5000000   0.0000000), wk =   0.0185185
        k(   14) = (   0.0000000  -0.5000000   0.1034787), wk =   0.0370370
        k(   15) = (   0.0000000  -0.5000000   0.2069573), wk =   0.0370370
        k(   16) = (   0.0000000  -0.5000000  -0.3104360), wk =   0.0185185
        k(   17) = (   0.1666667   0.1666667   0.0000000), wk =   0.0370370
        k(   18) = (   0.1666667   0.1666667   0.1034787), wk =   0.0740741
        k(   19) = (   0.1666667   0.1666667   0.2069573), wk =   0.0740741
        k(   20) = (   0.1666667   0.1666667  -0.3104360), wk =   0.0370370
        k(   21) = (   0.1666667   0.3333333   0.0000000), wk =   0.0740741
        k(   22) = (   0.1666667   0.3333333   0.1034787), wk =   0.1481481
        k(   23) = (   0.1666667   0.3333333   0.2069573), wk =   0.1481481
        k(   24) = (   0.1666667   0.3333333  -0.3104360), wk =   0.0740741
        k(   25) = (   0.1666667  -0.5000000   0.0000000), wk =   0.0370370
        k(   26) = (   0.1666667  -0.5000000   0.1034787), wk =   0.0740741
        k(   27) = (   0.1666667  -0.5000000   0.2069573), wk =   0.0740741
        k(   28) = (   0.1666667  -0.5000000  -0.3104360), wk =   0.0370370
        k(   29) = (   0.3333333   0.3333333   0.0000000), wk =   0.0370370
        k(   30) = (   0.3333333   0.3333333   0.1034787), wk =   0.0740741
        k(   31) = (   0.3333333   0.3333333   0.2069573), wk =   0.0740741
        k(   32) = (   0.3333333   0.3333333  -0.3104360), wk =   0.0370370
        k(   33) = (   0.3333333  -0.5000000   0.0000000), wk =   0.0370370
        k(   34) = (   0.3333333  -0.5000000   0.1034787), wk =   0.0740741
        k(   35) = (   0.3333333  -0.5000000   0.2069573), wk =   0.0740741
        k(   36) = (   0.3333333  -0.5000000  -0.3104360), wk =   0.0370370
        k(   37) = (  -0.5000000  -0.5000000   0.0000000), wk =   0.0092593
        k(   38) = (  -0.5000000  -0.5000000   0.1034787), wk =   0.0185185
        k(   39) = (  -0.5000000  -0.5000000   0.2069573), wk =   0.0185185
        k(   40) = (  -0.5000000  -0.5000000  -0.3104360), wk =   0.0092593

     Check: negative core charge=   -0.000001

[...]
K             0.2124478696        0.2875521304        0.2500000000
K             0.7124478696        0.2124478696        0.2500000000
K             0.2124478696        0.2875521304        0.7500000000
K             0.7124478696        0.2124478696        0.7500000000
K             0.7875521304        0.7124478696        0.2500000000
K             0.7875521304        0.7124478696        0.7500000000
K             0.2875521304        0.7875521304        0.7500000000
Al            0.0000000000        0.0000000000       -0.0000000000
Al            0.5000000000        0.5000000000        0.5000000000
Al            0.0000000000        0.5000000000        0.0000000000
Al            0.5000000000        0.0000000000        0.5000000000
Al            0.0000000000        0.5000000000        0.5000000000
Al            0.5000000000        0.0000000000       -0.0000000000
H             0.5435281442        0.8222372924        0.1157845587
H             0.9564718558        0.3222372924        0.3842154413
H             0.6777627076        0.9564718558        0.3842154413
H             0.9564718558        0.3222372924        0.6157845587
H             0.6777627076        0.9564718558        0.6157845587
H             0.4564718558        0.1777627076        0.1157845587
H             0.8222372924        0.4564718558        0.1157845587
H             0.4564718558        0.1777627076        0.8842154413
H             0.8222372924        0.4564718558        0.8842154413
H             0.1777627076        0.5435281442        0.1157845587
H             0.5435281442        0.8222372924        0.8842154413
H             0.1777627076        0.5435281442        0.8842154413
H             0.0435281442        0.6777627076        0.3842154413
H             0.3222372924        0.0435281442        0.3842154413
H             0.0435281442        0.6777627076        0.6157845587
H             0.3222372924        0.0435281442        0.6157845587
H             0.0000000000        0.0000000000        0.1686923985
H             0.5000000000        0.5000000000        0.3313076015
H             0.5000000000        0.5000000000        0.6686923985
H             0.0000000000        0.0000000000        0.8313076015
H             0.7527763539        0.0742875700       -0.0000000000
H             0.7472236461        0.5742875700        0.5000000000
H             0.4257124300        0.7472236461        0.5000000000
H             0.2472236461        0.9257124300       -0.0000000000
H             0.0742875700        0.2472236461        0.0000000000
H             0.9257124300        0.7527763539        0.0000000000
H             0.2527763539        0.4257124300        0.5000000000
H             0.5742875700        0.2527763539        0.5000000000

     Writing config-only to output data dir ./k5al3h14.save/
     NEW-OLD atomic charge density approx. for the potential

[...]

     Energy error            =      4.3E-02 Ry
     Gradient error          =      3.7E-02 Ry/Bohr

[...]

     energy             old  =   -1400.1683924960 Ry
     energy             new  =   -1400.2111518691 Ry

     CASE: energy            _new < energy            _old

     WARNING: bfgs curvature condition failed, Theta= 0.892
     new trust radius        =       0.0531612268 bohr
     new conv_thr            =       0.0000000037 Ry

[...]

     iteration #  1     ecut=    75.00 Ry     beta= 0.70
     Davidson diagonalization with overlap
     c_bands:  1 eigenvalues not converged
     ethr =  1.00E-06,  avg # of iterations = 10.9

[...]

     Threshold (ethr) on eigenvalues was too large:
     Diagonalizing with lowered threshold

     Davidson diagonalization with overlap
     ethr =  9.38E-08,  avg # of iterations =  1.9

[...]

     number of scf cycles    =  18
     number of bfgs steps    =  17

     energy             old  =   -1400.3593280876 Ry
     energy             new  =   -1400.3593808219 Ry

     CASE: energy            _new < energy            _old

     new trust radius        =       0.0074658416 bohr
     new conv_thr            =            1.0E-10 Ry

ATOMIC_POSITIONS (crystal)
K             0.0000000000        0.0000000000        0.5000000000
K             0.5000000000        0.5000000000        0.0000000000
K             0.2917230712        0.7917230712        0.2500000000
K             0.2082769288        0.2917230712        0.2500000000
K             0.7082769288        0.2082769288        0.2500000000
K             0.2082769288        0.2917230712        0.7500000000
K             0.7082769288        0.2082769288        0.7500000000
K             0.7917230712        0.7082769288        0.2500000000
K             0.7917230712        0.7082769288        0.7500000000
K             0.2917230712        0.7917230712        0.7500000000
Al            0.0000000000        0.0000000000       -0.0000000000
Al            0.5000000000        0.5000000000        0.5000000000
Al            0.0000000000        0.5000000000       -0.0000000000
Al            0.5000000000        0.0000000000        0.5000000000
Al            0.0000000000        0.5000000000        0.5000000000
Al            0.5000000000        0.0000000000        0.0000000000
H             0.5433039353        0.8348610650        0.1051107069
H             0.9566960647        0.3348610650        0.3948892931
H             0.6651389350        0.9566960647        0.3948892931
H             0.9566960647        0.3348610650        0.6051107069
H             0.6651389350        0.9566960647        0.6051107069
H             0.4566960647        0.1651389350        0.1051107069
H             0.8348610650        0.4566960647        0.1051107069
H             0.4566960647        0.1651389350        0.8948892931
H             0.8348610650        0.4566960647        0.8948892931
H             0.1651389350        0.5433039353        0.1051107069
H             0.5433039353        0.8348610650        0.8948892931
H             0.1651389350        0.5433039353        0.8948892931
H             0.0433039353        0.6651389350        0.3948892931
H             0.3348610650        0.0433039353        0.3948892931
H             0.0433039353        0.6651389350        0.6051107069
H             0.3348610650        0.0433039353        0.6051107069
H             0.0000000000        0.0000000000        0.1521826764
H             0.5000000000        0.5000000000        0.3478173236
H             0.5000000000        0.5000000000        0.6521826764
H             0.0000000000        0.0000000000        0.8478173236
H             0.7542896291        0.0580343515        0.0000000000
H             0.7457103709        0.5580343515        0.5000000000
H             0.4419656485        0.7457103709        0.5000000000
H             0.2457103709        0.9419656485        0.0000000000
H             0.0580343515        0.2457103709       -0.0000000000
H             0.9419656485        0.7542896291       -0.0000000000
H             0.2542896291        0.4419656485        0.5000000000
H             0.5580343515        0.2542896291        0.5000000000

     Writing config-only to output data dir ./k5al3h14.save/
     NEW-OLD atomic charge density approx. for the potential

     Check: negative core charge=   -0.000001

     Self-consistent Calculation

[...]

     Threshold (ethr) on eigenvalues was too large:
     Diagonalizing with lowered threshold

     Davidson diagonalization with overlap
     ethr =  2.12E-08,  avg # of iterations =  3.1

[...]

     total energy              =   -1400.35941843 Ry
     estimated scf accuracy    <          1.1E-09 Ry

     iteration #  6     ecut=    75.00 Ry     beta= 0.70
     Davidson diagonalization with overlap
     ethr =  7.88E-13,  avg # of iterations =  2.4

     End of self-consistent calculation

[...]

          k = 0.3333-0.5000-0.3104 ( 44716 PWs)   bands (ev):

[...]

          k =-0.5000-0.5000-0.3104 ( 44640 PWs)   bands (ev):

   -26.9774 -26.9774 -26.9774 -26.9774 -26.9762 -26.9762 -26.9750 -26.9750
   -26.8664 -26.8664 -10.6855 -10.6855 -10.6319 -10.6319 -10.5865 -10.5865
   -10.5865 -10.5865 -10.5690 -10.5690 -10.5690 -10.5690 -10.5261 -10.5261
   -10.4809 -10.4809 -10.4809 -10.4809 -10.4682 -10.4682 -10.4606 -10.4606
   -10.4429 -10.4429 -10.3668 -10.3668 -10.3118 -10.3118 -10.3118 -10.3118
    -3.5476  -3.5476  -3.3172  -3.3172  -3.3172  -3.3172  -0.5122  -0.5122
    -0.1220  -0.1220  -0.0421  -0.0421  -0.0421  -0.0421   0.2910   0.2910
     0.6903   0.6903   0.9173   0.9173   0.9173   0.9173   1.2785   1.2785
     1.8178   1.8178   2.3158   2.3158   5.8146   5.8146   6.4116   6.4116
     6.5557   6.5557   6.5557   6.5557   7.5078   7.5078   7.5078   7.5078
     8.0033   8.0033

     the Fermi energy is     4.1366 ev

!    total energy              =   -1400.35941843 Ry
     estimated scf accuracy    <          8.9E-11 Ry
     smearing contrib. (-TS)   =       0.00000000 Ry
     internal energy E=F+TS    =   -1400.35941843 Ry

     The total energy is F=E-TS. E is the sum of the following terms:
     one-electron contribution =    -229.25896244 Ry
     hartree contribution      =     155.70645136 Ry
     xc contribution           =    -148.35959297 Ry
     ewald contribution        =    -416.28517824 Ry
     one-center paw contrib.   =    -762.16213615 Ry

     convergence has been achieved in   6 iterations

     Forces acting on atoms (cartesian axes, Ry/au):

     atom    1 type  3   force =     0.00000000    0.00000000    0.00000000
     atom    2 type  3   force =     0.00000000    0.00000000    0.00000000
     atom    3 type  3   force =     0.00002998    0.00002998    0.00000000
     atom    4 type  3   force =    -0.00002998    0.00002998    0.00000000
     atom    5 type  3   force =    -0.00002998   -0.00002998    0.00000000
     atom    6 type  3   force =    -0.00002998    0.00002998    0.00000000
     atom    7 type  3   force =    -0.00002998   -0.00002998    0.00000000
     atom    8 type  3   force =     0.00002998   -0.00002998    0.00000000
     atom    9 type  3   force =     0.00002998   -0.00002998    0.00000000
     atom   10 type  3   force =     0.00002998    0.00002998    0.00000000
     atom   11 type  1   force =     0.00000000    0.00000000    0.00000000
     atom   12 type  1   force =     0.00000000    0.00000000   -0.00000000
     atom   13 type  1   force =     0.00000000    0.00000000   -0.00000000
     atom   14 type  1   force =     0.00000000    0.00000000    0.00000000
     atom   15 type  1   force =     0.00000000    0.00000000    0.00000000
     atom   16 type  1   force =     0.00000000    0.00000000   -0.00000000
     atom   17 type  2   force =    -0.00008828   -0.00004313   -0.00006723
     atom   18 type  2   force =     0.00008828   -0.00004313    0.00006723
     atom   19 type  2   force =     0.00004313    0.00008828    0.00006723
     atom   20 type  2   force =     0.00008828   -0.00004313   -0.00006723
     atom   21 type  2   force =     0.00004313    0.00008828   -0.00006723
     atom   22 type  2   force =     0.00008828    0.00004313   -0.00006723
     atom   23 type  2   force =    -0.00004313    0.00008828   -0.00006723
     atom   24 type  2   force =     0.00008828    0.00004313    0.00006723
     atom   25 type  2   force =    -0.00004313    0.00008828    0.00006723
     atom   26 type  2   force =     0.00004313   -0.00008828   -0.00006723
     atom   27 type  2   force =    -0.00008828   -0.00004313    0.00006723
     atom   28 type  2   force =     0.00004313   -0.00008828    0.00006723
     atom   29 type  2   force =    -0.00008828    0.00004313    0.00006723
     atom   30 type  2   force =    -0.00004313   -0.00008828    0.00006723
     atom   31 type  2   force =    -0.00008828    0.00004313   -0.00006723
     atom   32 type  2   force =    -0.00004313   -0.00008828   -0.00006723
     atom   33 type  2   force =     0.00000000    0.00000000   -0.00068515
     atom   34 type  2   force =     0.00000000    0.00000000    0.00068515
     atom   35 type  2   force =     0.00000000    0.00000000   -0.00068515
     atom   36 type  2   force =     0.00000000    0.00000000    0.00068515
     atom   37 type  2   force =     0.00040611   -0.00023971    0.00000000
     atom   38 type  2   force =    -0.00040611   -0.00023971    0.00000000
     atom   39 type  2   force =     0.00023971   -0.00040611    0.00000000
     atom   40 type  2   force =    -0.00040611    0.00023971    0.00000000
     atom   41 type  2   force =    -0.00023971   -0.00040611    0.00000000
     atom   42 type  2   force =     0.00023971    0.00040611    0.00000000
     atom   43 type  2   force =     0.00040611    0.00023971    0.00000000
     atom   44 type  2   force =    -0.00023971    0.00040611    0.00000000

     Total force =     0.001974     Total SCF correction =     0.000012

     Computing stress (Cartesian axis) and pressure

          total   stress  (Ry/bohr**3)                   (kbar)     P=       -0.27
   0.00002051   0.00000000   0.00000000            3.02        0.00        0.00
   0.00000000   0.00002051   0.00000000            0.00        3.02        0.00
   0.00000000   0.00000000  -0.00004660            0.00        0.00       -6.86

     Energy error            =      3.8E-05 Ry
     Gradient error          =      6.9E-04 Ry/Bohr

     bfgs converged in  19 scf cycles and  18 bfgs steps
     (criteria: energy <  1.0E-04 Ry, force <  1.0E-03 Ry/Bohr)

     End of BFGS Geometry Optimization

     Final energy             =   -1400.3594184310 Ry

     File ./k5al3h14.bfgs deleted, as requested
Begin final coordinates

ATOMIC_POSITIONS (crystal)
K             0.0000000000        0.0000000000        0.5000000000
K             0.5000000000        0.5000000000        0.0000000000
K             0.2917230712        0.7917230712        0.2500000000
K             0.2082769288        0.2917230712        0.2500000000
K             0.7082769288        0.2082769288        0.2500000000
K             0.2082769288        0.2917230712        0.7500000000
K             0.7082769288        0.2082769288        0.7500000000
K             0.7917230712        0.7082769288        0.2500000000
K             0.7917230712        0.7082769288        0.7500000000
K             0.2917230712        0.7917230712        0.7500000000
Al            0.0000000000        0.0000000000       -0.0000000000
Al            0.5000000000        0.5000000000        0.5000000000
Al            0.0000000000        0.5000000000       -0.0000000000
Al            0.5000000000        0.0000000000        0.5000000000
Al            0.0000000000        0.5000000000        0.5000000000
Al            0.5000000000        0.0000000000        0.0000000000
H             0.5433039353        0.8348610650        0.1051107069
H             0.9566960647        0.3348610650        0.3948892931
H             0.6651389350        0.9566960647        0.3948892931
H             0.9566960647        0.3348610650        0.6051107069
H             0.6651389350        0.9566960647        0.6051107069
H             0.4566960647        0.1651389350        0.1051107069
H             0.8348610650        0.4566960647        0.1051107069
H             0.4566960647        0.1651389350        0.8948892931
H             0.8348610650        0.4566960647        0.8948892931
H             0.1651389350        0.5433039353        0.1051107069
H             0.5433039353        0.8348610650        0.8948892931
H             0.1651389350        0.5433039353        0.8948892931
H             0.0433039353        0.6651389350        0.3948892931
H             0.3348610650        0.0433039353        0.3948892931
H             0.0433039353        0.6651389350        0.6051107069
H             0.3348610650        0.0433039353        0.6051107069
H             0.0000000000        0.0000000000        0.1521826764
H             0.5000000000        0.5000000000        0.3478173236
H             0.5000000000        0.5000000000        0.6521826764
H             0.0000000000        0.0000000000        0.8478173236
H             0.7542896291        0.0580343515        0.0000000000
H             0.7457103709        0.5580343515        0.5000000000
H             0.4419656485        0.7457103709        0.5000000000
H             0.2457103709        0.9419656485        0.0000000000
H             0.0580343515        0.2457103709       -0.0000000000
H             0.9419656485        0.7542896291       -0.0000000000
H             0.2542896291        0.4419656485        0.5000000000
H             0.5580343515        0.2542896291        0.5000000000
End final coordinates

     Writing all to output data dir ./k5al3h14.save/

     General routines

     Parallel routines

   This run was terminated on:  22:18:18  27Nov2023

   JOB DONE.
Job execution finished at: Mon Nov 27 22:18:19 IST 2023