     Program PWSCF v.7.1 starts on 28Nov2023 at 11: 2: 2

     Reading input from k5al3h14.in

     Current dimensions of program PWSCF are:
     Max number of different atomic species (ntypx) = 10
     Max number of k-points (npk) =  40000
     Max angular momentum in pseudopotentials (lmaxx) =  4
     file Al.pbe-n-kjpaw_psl.1.0.0.UPF: wavefunction(s)  3S 3P renormalized
     file K.pbe-spn-kjpaw_psl.1.0.0.UPF: wavefunction(s)  3S renormalized

     IMPORTANT: XC functional enforced from input :
     Exchange-correlation= PBE
                           (   1   4   3   4   0   0   0)
     Any further DFT definition will be discarded
     Please, verify this is what you really want

     Message from routine setup:
     using ibrav=0 with symmetry is DISCOURAGED, use correct ibrav instead

     K-points division:     npool     =       3
     R & G space division:  proc/nbgrp/npool/nimage =      48
     Subspace diagonalization in iterative solution of the eigenvalue problem:
     a serial algorithm will be used

     Using Slab Decomposition

     bravais-lattice index     =            0
     lattice parameter (alat)  =      13.6251  a.u.
     unit-cell volume          =    4073.9414 (a.u.)^3
     number of atoms/cell      =           44
     number of atomic types    =            3
     number of electrons       =       136.00
     number of Kohn-Sham states=           82
     kinetic-energy cutoff     =      75.0000  Ry
     charge density cutoff     =     375.0000  Ry
     scf convergence threshold =      1.0E-08
     mixing beta               =       0.7000
     number of iterations used =            8  plain     mixing
     energy convergence thresh.=      1.0E-04
     force convergence thresh. =      1.0E-03
     press convergence thresh. =      5.0E-01
     Exchange-correlation= PBE
                           (   1   4   3   4   0   0   0)
     nstep                     =           50

     celldm(1)=  13.625077  celldm(2)=   0.000000  celldm(3)=   0.000000
     celldm(4)=   0.000000  celldm(5)=   0.000000  celldm(6)=   0.000000

     crystal axes: (cart. coord. in units of alat)
               a(1) = (   1.000000   0.000000   0.000000 )
               a(2) = (   0.000000   1.000000   0.000000 )
               a(3) = (   0.000000   0.000000   1.610638 )

     reciprocal axes: (cart. coord. in units 2 pi/alat)
               b(1) = (  1.000000  0.000000  0.000000 )
               b(2) = (  0.000000  1.000000  0.000000 )
               b(3) = (  0.000000  0.000000  0.620872 )

     PseudoPot. # 1 for Al read from file:
     /home/garima.iitr/.cache/.es/compmat/kalh4/Al.pbe-n-kjpaw_psl.1.0.0.UPF
     MD5 check sum: 502b6b27b9c6270cab5dd1084b96fa6d
     Pseudo is Projector augmented-wave + core cor, Zval =  3.0
     Generated using &quot;atomic&quot; code by A. Dal Corso  v.6.3
     Shape of augmentation charge: PSQ
     Using radial grid of 1135 points,  6 beta functions with:
                l(1) =   0
                l(2) =   0
                l(3) =   1
                l(4) =   1
                l(5) =   2
                l(6) =   2
     Q(r) pseudized with 0 coefficients

     PseudoPot. # 2 for H  read from file:
     /home/garima.iitr/.cache/.es/compmat/kalh4/H.pbe-rrkjus_psl.1.0.0.UPF
     MD5 check sum: 3f4114867bd07edc7f1424d066fc1888
     Pseudo is Ultrasoft, Zval =  1.0
     Generated using &quot;atomic&quot; code by A. Dal Corso  v.6.3MaX
     Using radial grid of  929 points,  2 beta functions with:
                l(1) =   0
                l(2) =   0
     Q(r) pseudized with 0 coefficients

     PseudoPot. # 3 for K  read from file:
     /home/garima.iitr/.cache/.es/compmat/kalh4/K.pbe-spn-kjpaw_psl.1.0.0.UPF
     MD5 check sum: 34cc42130a09071ebe376fd42eb21491
     Pseudo is Projector augmented-wave + core cor, Zval =  9.0
     Generated using &quot;atomic&quot; code by A. Dal Corso  v.6.2.2
     Shape of augmentation charge: PSQ
     Using radial grid of 1165 points,  6 beta functions with:
                l(1) =   0
                l(2) =   0
                l(3) =   1
                l(4) =   1
                l(5) =   2
                l(6) =   2
     Q(r) pseudized with 0 coefficients

     atomic species   valence    mass     pseudopotential
        Al             3.00    26.98100     Al( 1.00)
        H              1.00     1.00750     H ( 1.00)
        K              9.00    39.09830     K ( 1.00)

     16 Sym. Ops., with inversion, found ( 8 have fractional translation)

   Cartesian axes

     site n.     atom                  positions (alat units)
         1           K   tau(   1) = (   0.0000000   0.0000000   0.8053190  )
         2           K   tau(   2) = (   0.5000000   0.5000000   0.0000000  )
         3           K   tau(   3) = (   0.2917231   0.7917231   0.4026595  )
         4           K   tau(   4) = (   0.2082769   0.2917231   0.4026595  )
         5           K   tau(   5) = (   0.7082769   0.2082769   0.4026595  )
         6           K   tau(   6) = (   0.2082769   0.2917231   1.2079785  )
         7           K   tau(   7) = (   0.7082769   0.2082769   1.2079785  )
         8           K   tau(   8) = (   0.7917231   0.7082769   0.4026595  )
         9           K   tau(   9) = (   0.7917231   0.7082769   1.2079785  )
        10           K   tau(  10) = (   0.2917231   0.7917231   1.2079785  )
        11           Al  tau(  11) = (   0.0000000   0.0000000   0.0000000  )
        12           Al  tau(  12) = (   0.5000000   0.5000000   0.8053190  )
        13           Al  tau(  13) = (   0.0000000   0.5000000   0.0000000  )
        14           Al  tau(  14) = (   0.5000000   0.0000000   0.8053190  )
        15           Al  tau(  15) = (   0.0000000   0.5000000   0.8053190  )
        16           Al  tau(  16) = (   0.5000000   0.0000000   0.0000000  )
        17           H   tau(  17) = (   0.5433039   0.8348611   0.1692953  )
        18           H   tau(  18) = (   0.9566961   0.3348611   0.6360237  )
        19           H   tau(  19) = (   0.6651389   0.9566961   0.6360237  )
        20           H   tau(  20) = (   0.9566961   0.3348611   0.9746143  )
        21           H   tau(  21) = (   0.6651389   0.9566961   0.9746143  )
        22           H   tau(  22) = (   0.4566961   0.1651389   0.1692953  )
        23           H   tau(  23) = (   0.8348611   0.4566961   0.1692953  )
        24           H   tau(  24) = (   0.4566961   0.1651389   1.4413426  )
        25           H   tau(  25) = (   0.8348611   0.4566961   1.4413426  )
        26           H   tau(  26) = (   0.1651389   0.5433039   0.1692953  )
        27           H   tau(  27) = (   0.5433039   0.8348611   1.4413426  )
        28           H   tau(  28) = (   0.1651389   0.5433039   1.4413426  )
        29           H   tau(  29) = (   0.0433039   0.6651389   0.6360237  )
        30           H   tau(  30) = (   0.3348611   0.0433039   0.6360237  )
        31           H   tau(  31) = (   0.0433039   0.6651389   0.9746143  )
        32           H   tau(  32) = (   0.3348611   0.0433039   0.9746143  )
        33           H   tau(  33) = (   0.0000000   0.0000000   0.2451112  )
        34           H   tau(  34) = (   0.5000000   0.5000000   0.5602078  )
        35           H   tau(  35) = (   0.5000000   0.5000000   1.0504302  )
        36           H   tau(  36) = (   0.0000000   0.0000000   1.3655267  )
        37           H   tau(  37) = (   0.7542896   0.0580344   0.0000000  )
        38           H   tau(  38) = (   0.7457104   0.5580344   0.8053190  )
        39           H   tau(  39) = (   0.4419656   0.7457104   0.8053190  )
        40           H   tau(  40) = (   0.2457104   0.9419656   0.0000000  )
        41           H   tau(  41) = (   0.0580344   0.2457104   0.0000000  )
        42           H   tau(  42) = (   0.9419656   0.7542896   0.0000000  )
        43           H   tau(  43) = (   0.2542896   0.4419656   0.8053190  )
        44           H   tau(  44) = (   0.5580344   0.2542896   0.8053190  )

     number of k points=    40  Marzari-Vanderbilt smearing, width (Ry)=  0.0050
                       cart. coord. in units 2pi/alat
        k(    1) = (   0.0000000   0.0000000   0.0000000), wk =   0.0092593
        k(    2) = (   0.0000000   0.0000000   0.1034787), wk =   0.0185185
        k(    3) = (   0.0000000   0.0000000   0.2069573), wk =   0.0185185
        k(    4) = (   0.0000000   0.0000000  -0.3104360), wk =   0.0092593
        k(    5) = (   0.0000000   0.1666667   0.0000000), wk =   0.0370370
        k(    6) = (   0.0000000   0.1666667   0.1034787), wk =   0.0740741
        k(    7) = (   0.0000000   0.1666667   0.2069573), wk =   0.0740741
        k(    8) = (   0.0000000   0.1666667  -0.3104360), wk =   0.0370370
        k(    9) = (   0.0000000   0.3333333   0.0000000), wk =   0.0370370
        k(   10) = (   0.0000000   0.3333333   0.1034787), wk =   0.0740741
        k(   11) = (   0.0000000   0.3333333   0.2069573), wk =   0.0740741
        k(   12) = (   0.0000000   0.3333333  -0.3104360), wk =   0.0370370
        k(   13) = (   0.0000000  -0.5000000   0.0000000), wk =   0.0185185
        k(   14) = (   0.0000000  -0.5000000   0.1034787), wk =   0.0370370
        k(   15) = (   0.0000000  -0.5000000   0.2069573), wk =   0.0370370
        k(   16) = (   0.0000000  -0.5000000  -0.3104360), wk =   0.0185185
        k(   17) = (   0.1666667   0.1666667   0.0000000), wk =   0.0370370
        k(   18) = (   0.1666667   0.1666667   0.1034787), wk =   0.0740741
        k(   19) = (   0.1666667   0.1666667   0.2069573), wk =   0.0740741
        k(   20) = (   0.1666667   0.1666667  -0.3104360), wk =   0.0370370
        k(   21) = (   0.1666667   0.3333333   0.0000000), wk =   0.0740741
        k(   22) = (   0.1666667   0.3333333   0.1034787), wk =   0.1481481
        k(   23) = (   0.1666667   0.3333333   0.2069573), wk =   0.1481481
        k(   24) = (   0.1666667   0.3333333  -0.3104360), wk =   0.0740741
        k(   25) = (   0.1666667  -0.5000000   0.0000000), wk =   0.0370370
        k(   26) = (   0.1666667  -0.5000000   0.1034787), wk =   0.0740741
        k(   27) = (   0.1666667  -0.5000000   0.2069573), wk =   0.0740741
        k(   28) = (   0.1666667  -0.5000000  -0.3104360), wk =   0.0370370
        k(   29) = (   0.3333333   0.3333333   0.0000000), wk =   0.0370370
        k(   30) = (   0.3333333   0.3333333   0.1034787), wk =   0.0740741
        k(   31) = (   0.3333333   0.3333333   0.2069573), wk =   0.0740741
        k(   32) = (   0.3333333   0.3333333  -0.3104360), wk =   0.0370370
        k(   33) = (   0.3333333  -0.5000000   0.0000000), wk =   0.0370370
        k(   34) = (   0.3333333  -0.5000000   0.1034787), wk =   0.0740741
        k(   35) = (   0.3333333  -0.5000000   0.2069573), wk =   0.0740741
        k(   36) = (   0.3333333  -0.5000000  -0.3104360), wk =   0.0370370
        k(   37) = (  -0.5000000  -0.5000000   0.0000000), wk =   0.0092593
        k(   38) = (  -0.5000000  -0.5000000   0.1034787), wk =   0.0185185
        k(   39) = (  -0.5000000  -0.5000000   0.2069573), wk =   0.0185185
        k(   40) = (  -0.5000000  -0.5000000  -0.3104360), wk =   0.0092593

[...]
End final coordinates

     Writing config-only to output data dir ./k5al3h14.save/

     Final scf calculation at the relaxed structure.
     The G-vectors are recalculated for the final unit cell
     Results may differ from those at the preceding step.

     Using Slab Decomposition

     bravais-lattice index     =            0
     lattice parameter (alat)  =      13.6251  a.u.
     unit-cell volume          =    4107.0619 (a.u.)^3
     number of atoms/cell      =           44
     number of atomic types    =            3
     number of electrons       =       136.00
     number of Kohn-Sham states=           82
     kinetic-energy cutoff     =      75.0000  Ry
     charge density cutoff     =     375.0000  Ry
     scf convergence threshold =      1.0E-10
     mixing beta               =       0.7000
     number of iterations used =            8  plain     mixing
     press convergence thresh. =      5.0E-01
     Exchange-correlation= PBE
                           (   1   4   3   4   0   0   0)

     celldm(1)=  13.625077  celldm(2)=   0.000000  celldm(3)=   0.000000
     celldm(4)=   0.000000  celldm(5)=   0.000000  celldm(6)=   0.000000

     crystal axes: (cart. coord. in units of alat)
               a(1) = (   1.015240   0.000000   0.000000 )
               a(2) = (   0.000000   1.015240   0.000000 )
               a(3) = (   0.000000   0.000000   1.575350 )

     reciprocal axes: (cart. coord. in units 2 pi/alat)
               b(1) = (  0.984989  0.000000  0.000000 )
               b(2) = (  0.000000  0.984989  0.000000 )
               b(3) = (  0.000000  0.000000  0.634780 )

     PseudoPot. # 1 for Al read from file:
     /home/garima.iitr/.cache/.es/compmat/kalh4/Al.pbe-n-kjpaw_psl.1.0.0.UPF
     MD5 check sum: 502b6b27b9c6270cab5dd1084b96fa6d
     Pseudo is Projector augmented-wave + core cor, Zval =  3.0
     Generated using &quot;atomic&quot; code by A. Dal Corso  v.6.3
     Shape of augmentation charge: PSQ
     Using radial grid of 1135 points,  6 beta functions with:
                l(1) =   0
                l(2) =   0
                l(3) =   1
                l(4) =   1
                l(5) =   2
                l(6) =   2
     Q(r) pseudized with 0 coefficients

     PseudoPot. # 2 for H  read from file:
     /home/garima.iitr/.cache/.es/compmat/kalh4/H.pbe-rrkjus_psl.1.0.0.UPF
     MD5 check sum: 3f4114867bd07edc7f1424d066fc1888
     Pseudo is Ultrasoft, Zval =  1.0
     Generated using &quot;atomic&quot; code by A. Dal Corso  v.6.3MaX
     Using radial grid of  929 points,  2 beta functions with:
                l(1) =   0
                l(2) =   0
     Q(r) pseudized with 0 coefficients

     PseudoPot. # 3 for K  read from file:
     /home/garima.iitr/.cache/.es/compmat/kalh4/K.pbe-spn-kjpaw_psl.1.0.0.UPF
     MD5 check sum: 34cc42130a09071ebe376fd42eb21491
     Pseudo is Projector augmented-wave + core cor, Zval =  9.0
     Generated using &quot;atomic&quot; code by A. Dal Corso  v.6.2.2
     Shape of augmentation charge: PSQ
     Using radial grid of 1165 points,  6 beta functions with:
                l(1) =   0
                l(2) =   0
                l(3) =   1
                l(4) =   1
                l(5) =   2
                l(6) =   2
     Q(r) pseudized with 0 coefficients

     atomic species   valence    mass     pseudopotential
        Al             3.00    26.98100     Al( 1.00)
        H              1.00     1.00750     H ( 1.00)
        K              9.00    39.09830     K ( 1.00)

     16 Sym. Ops., with inversion, found ( 8 have fractional translation)

   Cartesian axes

     site n.     atom                  positions (alat units)
         1           K   tau(   1) = (   0.0000000   0.0000000   0.7876749  )
         2           K   tau(   2) = (   0.5076200   0.5076200  -0.0000000  )
         3           K   tau(   3) = (   0.2878112   0.7954312   0.3938374  )
         4           K   tau(   4) = (   0.2198088   0.2878112   0.3938374  )
         5           K   tau(   5) = (   0.7274287   0.2198088   0.3938374  )
         6           K   tau(   6) = (   0.2198088   0.2878112   1.1815123  )
         7           K   tau(   7) = (   0.7274287   0.2198088   1.1815123  )
         8           K   tau(   8) = (   0.7954312   0.7274287   0.3938374  )
         9           K   tau(   9) = (   0.7954312   0.7274287   1.1815123  )
        10           K   tau(  10) = (   0.2878112   0.7954312   1.1815123  )
        11           Al  tau(  11) = (   0.0000000   0.0000000  -0.0000000  )
        12           Al  tau(  12) = (   0.5076200   0.5076200   0.7876749  )
        13           Al  tau(  13) = (   0.0000000   0.5076200  -0.0000000  )
        14           Al  tau(  14) = (   0.5076200   0.0000000   0.7876749  )
        15           Al  tau(  15) = (   0.0000000   0.5076200   0.7876749  )
        16           Al  tau(  16) = (   0.5076200   0.0000000  -0.0000000  )
        17           H   tau(  17) = (   0.5437044   0.8478147   0.1675461  )
        18           H   tau(  18) = (   0.9791555   0.3401947   0.6201288  )
        19           H   tau(  19) = (   0.6750453   0.9791555   0.6201288  )
        20           H   tau(  20) = (   0.9791555   0.3401947   0.9552209  )
        21           H   tau(  21) = (   0.6750453   0.9791555   0.9552209  )
        22           H   tau(  22) = (   0.4715355   0.1674253   0.1675461  )
        23           H   tau(  23) = (   0.8478147   0.4715355   0.1675461  )
        24           H   tau(  24) = (   0.4715355   0.1674253   1.4078037  )
        25           H   tau(  25) = (   0.8478147   0.4715355   1.4078037  )
        26           H   tau(  26) = (   0.1674253   0.5437044   0.1675461  )
        27           H   tau(  27) = (   0.5437044   0.8478147   1.4078037  )
        28           H   tau(  28) = (   0.1674253   0.5437044   1.4078037  )
        29           H   tau(  29) = (   0.0360845   0.6750453   0.6201288  )
        30           H   tau(  30) = (   0.3401947   0.0360845   0.6201288  )
        31           H   tau(  31) = (   0.0360845   0.6750453   0.9552209  )
        32           H   tau(  32) = (   0.3401947   0.0360845   0.9552209  )
        33           H   tau(  33) = (   0.0000000   0.0000000   0.2437106  )
        34           H   tau(  34) = (   0.5076200   0.5076200   0.5439643  )
        35           H   tau(  35) = (   0.5076200   0.5076200   1.0313855  )
        36           H   tau(  36) = (   0.0000000   0.0000000   1.3316392  )
        37           H   tau(  37) = (   0.7661829   0.0481828   0.0000000  )
        38           H   tau(  38) = (   0.7566770   0.5558028   0.7876749  )
        39           H   tau(  39) = (   0.4594372   0.7566770   0.7876749  )
        40           H   tau(  40) = (   0.2490570   0.9670572   0.0000000  )
        41           H   tau(  41) = (   0.0481828   0.2490570  -0.0000000  )
        42           H   tau(  42) = (   0.9670572   0.7661829  -0.0000000  )
        43           H   tau(  43) = (   0.2585630   0.4594372   0.7876749  )
        44           H   tau(  44) = (   0.5558028   0.2585630   0.7876749  )

     number of k points=    40  Marzari-Vanderbilt smearing, width (Ry)=  0.0050
                       cart. coord. in units 2pi/alat
        k(    1) = (   0.0000000   0.0000000   0.0000000), wk =   0.0092593
        k(    2) = (   0.0000000   0.0000000   0.1057966), wk =   0.0185185
        k(    3) = (   0.0000000   0.0000000   0.2115932), wk =   0.0185185
        k(    4) = (   0.0000000   0.0000000  -0.3173898), wk =   0.0092593
        k(    5) = (   0.0000000   0.1641648   0.0000000), wk =   0.0370370
        k(    6) = (   0.0000000   0.1641648   0.1057966), wk =   0.0740741
        k(    7) = (   0.0000000   0.1641648   0.2115932), wk =   0.0740741
        k(    8) = (   0.0000000   0.1641648  -0.3173898), wk =   0.0370370
        k(    9) = (   0.0000000   0.3283296   0.0000000), wk =   0.0370370
        k(   10) = (   0.0000000   0.3283296   0.1057966), wk =   0.0740741
        k(   11) = (   0.0000000   0.3283296   0.2115932), wk =   0.0740741
        k(   12) = (   0.0000000   0.3283296  -0.3173898), wk =   0.0370370
        k(   13) = (   0.0000000  -0.4924944   0.0000000), wk =   0.0185185
        k(   14) = (   0.0000000  -0.4924944   0.1057966), wk =   0.0370370
        k(   15) = (   0.0000000  -0.4924944   0.2115932), wk =   0.0370370
        k(   16) = (   0.0000000  -0.4924944  -0.3173898), wk =   0.0185185
        k(   17) = (   0.1641648   0.1641648   0.0000000), wk =   0.0370370
        k(   18) = (   0.1641648   0.1641648   0.1057966), wk =   0.0740741
        k(   19) = (   0.1641648   0.1641648   0.2115932), wk =   0.0740741
        k(   20) = (   0.1641648   0.1641648  -0.3173898), wk =   0.0370370
        k(   21) = (   0.1641648   0.3283296   0.0000000), wk =   0.0740741
        k(   22) = (   0.1641648   0.3283296   0.1057966), wk =   0.1481481
        k(   23) = (   0.1641648   0.3283296   0.2115932), wk =   0.1481481
        k(   24) = (   0.1641648   0.3283296  -0.3173898), wk =   0.0740741
        k(   25) = (   0.1641648  -0.4924944   0.0000000), wk =   0.0370370
        k(   26) = (   0.1641648  -0.4924944   0.1057966), wk =   0.0740741
        k(   27) = (   0.1641648  -0.4924944   0.2115932), wk =   0.0740741
        k(   28) = (   0.1641648  -0.4924944  -0.3173898), wk =   0.0370370
        k(   29) = (   0.3283296   0.3283296   0.0000000), wk =   0.0370370
        k(   30) = (   0.3283296   0.3283296   0.1057966), wk =   0.0740741
        k(   31) = (   0.3283296   0.3283296   0.2115932), wk =   0.0740741
        k(   32) = (   0.3283296   0.3283296  -0.3173898), wk =   0.0370370
        k(   33) = (   0.3283296  -0.4924944   0.0000000), wk =   0.0370370
        k(   34) = (   0.3283296  -0.4924944   0.1057966), wk =   0.0740741
        k(   35) = (   0.3283296  -0.4924944   0.2115932), wk =   0.0740741
        k(   36) = (   0.3283296  -0.4924944  -0.3173898), wk =   0.0370370
        k(   37) = (  -0.4924944  -0.4924944   0.0000000), wk =   0.0092593
        k(   38) = (  -0.4924944  -0.4924944   0.1057966), wk =   0.0185185
        k(   39) = (  -0.4924944  -0.4924944   0.2115932), wk =   0.0185185
        k(   40) = (  -0.4924944  -0.4924944  -0.3173898), wk =   0.0092593

     Check: negative core charge=   -0.000001

     Initial potential from superposition of free atoms

     starting charge     135.7977, renormalised to     136.0000
     Starting wfcs are  132 randomized atomic wfcs
     Checking if some PAW data can be deallocated...

     Self-consistent Calculation

[...]

     iteration #  4     ecut=    75.00 Ry     beta= 0.70
     Davidson diagonalization with overlap
     c_bands:  1 eigenvalues not converged
     c_bands:  2 eigenvalues not converged
     ethr =  7.50E-06,  avg # of iterations = 10.3

[...]

     total energy              =   -1400.36282068 Ry
     estimated scf accuracy    <          1.0E-10 Ry

     iteration # 11     ecut=    75.00 Ry     beta= 0.70
     Davidson diagonalization with overlap
     ethr =  1.00E-13,  avg # of iterations =  2.0

     End of self-consistent calculation

[...]

          k = 0.3283-0.4925-0.3174 ( 45088 PWs)   bands (ev):

[...]

          k =-0.4925-0.4925-0.3174 ( 45072 PWs)   bands (ev):

   -27.0729 -27.0729 -26.9740 -26.9740 -26.9740 -26.9740 -26.9730 -26.9730
   -26.9714 -26.9714 -10.7774 -10.7774 -10.6425 -10.6425 -10.6425 -10.6425
   -10.6145 -10.6145 -10.5658 -10.5658 -10.5510 -10.5510 -10.5510 -10.5510
   -10.5187 -10.5187 -10.5187 -10.5187 -10.4797 -10.4797 -10.4747 -10.4747
   -10.4544 -10.4544 -10.4239 -10.4239 -10.4165 -10.4165 -10.4165 -10.4165
    -3.5919  -3.5919  -3.3624  -3.3624  -3.3624  -3.3624  -0.5816  -0.5816
    -0.1952  -0.1952  -0.0570  -0.0570  -0.0570  -0.0570   0.1575   0.1575
     0.6050   0.6050   0.8129   0.8129   0.8129   0.8129   1.2008   1.2008
     1.8005   1.8005   2.2539   2.2539   5.7371   5.7371   6.3895   6.3895
     6.5562   6.5562   6.5562   6.5562   7.4251   7.4251   7.4254   7.4254
     7.8801   7.8801

     the Fermi energy is     4.0689 ev

!    total energy              =   -1400.36282068 Ry
     estimated scf accuracy    <          1.2E-12 Ry
     smearing contrib. (-TS)   =       0.00000000 Ry
     internal energy E=F+TS    =   -1400.36282068 Ry

     The total energy is F=E-TS. E is the sum of the following terms:
     one-electron contribution =    -231.16599161 Ry
     hartree contribution      =     156.42439838 Ry
     xc contribution           =    -148.36137589 Ry
     ewald contribution        =    -415.09616617 Ry
     one-center paw contrib.   =    -762.16368539 Ry

     convergence has been achieved in  11 iterations

     Forces acting on atoms (cartesian axes, Ry/au):

     atom    1 type  3   force =     0.00000000    0.00000000    0.00000000
     atom    2 type  3   force =     0.00000000    0.00000000    0.00000000
     atom    3 type  3   force =     0.00018002    0.00018002    0.00000000
     atom    4 type  3   force =    -0.00018002    0.00018002    0.00000000
     atom    5 type  3   force =    -0.00018002   -0.00018002    0.00000000
     atom    6 type  3   force =    -0.00018002    0.00018002    0.00000000
     atom    7 type  3   force =    -0.00018002   -0.00018002    0.00000000
     atom    8 type  3   force =     0.00018002   -0.00018002    0.00000000
     atom    9 type  3   force =     0.00018002   -0.00018002    0.00000000
     atom   10 type  3   force =     0.00018002    0.00018002    0.00000000
     atom   11 type  1   force =     0.00000000    0.00000000    0.00000000
     atom   12 type  1   force =     0.00000000    0.00000000    0.00000000
     atom   13 type  1   force =     0.00000000    0.00000000    0.00000000
     atom   14 type  1   force =     0.00000000    0.00000000    0.00000000
     atom   15 type  1   force =     0.00000000    0.00000000    0.00000000
     atom   16 type  1   force =     0.00000000    0.00000000    0.00000000
     atom   17 type  2   force =    -0.00015786   -0.00028892    0.00023781
     atom   18 type  2   force =     0.00015786   -0.00028892   -0.00023781
     atom   19 type  2   force =     0.00028892    0.00015786   -0.00023781
     atom   20 type  2   force =     0.00015786   -0.00028892    0.00023781
     atom   21 type  2   force =     0.00028892    0.00015786    0.00023781
     atom   22 type  2   force =     0.00015786    0.00028892    0.00023781
     atom   23 type  2   force =    -0.00028892    0.00015786    0.00023781
     atom   24 type  2   force =     0.00015786    0.00028892   -0.00023781
     atom   25 type  2   force =    -0.00028892    0.00015786   -0.00023781
     atom   26 type  2   force =     0.00028892   -0.00015786    0.00023781
     atom   27 type  2   force =    -0.00015786   -0.00028892   -0.00023781
     atom   28 type  2   force =     0.00028892   -0.00015786   -0.00023781
     atom   29 type  2   force =    -0.00015786    0.00028892   -0.00023781
     atom   30 type  2   force =    -0.00028892   -0.00015786   -0.00023781
     atom   31 type  2   force =    -0.00015786    0.00028892    0.00023781
     atom   32 type  2   force =    -0.00028892   -0.00015786    0.00023781
     atom   33 type  2   force =     0.00000000    0.00000000   -0.00008582
     atom   34 type  2   force =     0.00000000    0.00000000    0.00008582
     atom   35 type  2   force =     0.00000000    0.00000000   -0.00008582
     atom   36 type  2   force =     0.00000000    0.00000000    0.00008582
     atom   37 type  2   force =     0.00081798    0.00001952   -0.00000000
     atom   38 type  2   force =    -0.00081798    0.00001952    0.00000000
     atom   39 type  2   force =    -0.00001952   -0.00081798    0.00000000
     atom   40 type  2   force =    -0.00081798   -0.00001952   -0.00000000
     atom   41 type  2   force =     0.00001952   -0.00081798   -0.00000000
     atom   42 type  2   force =    -0.00001952    0.00081798   -0.00000000
     atom   43 type  2   force =     0.00081798   -0.00001952    0.00000000
     atom   44 type  2   force =     0.00001952    0.00081798    0.00000000

     Total force =     0.002923     Total SCF correction =     0.000000

     Computing stress (Cartesian axis) and pressure

          total   stress  (Ry/bohr**3)                   (kbar)     P=        0.04
   0.00000040   0.00000000   0.00000000            0.06        0.00        0.00
   0.00000000   0.00000040   0.00000000            0.00        0.06        0.00
   0.00000000   0.00000000  -0.00000008            0.00        0.00       -0.01

     Writing all to output data dir ./k5al3h14.save/

     General routines

     Parallel routines

   This run was terminated on:  11:36:27  28Nov2023

   JOB DONE.
Job execution finished at: Tue Nov 28 11:36:28 IST 2023