     Program PWSCF v.7.1 starts on 31Oct2023 at 12:17:58

     Reading input from naalh4.in

     Current dimensions of program PWSCF are:
     Max number of different atomic species (ntypx) = 10
     Max number of k-points (npk) =  40000
     Max angular momentum in pseudopotentials (lmaxx) =  4
     file Al.pbe-n-kjpaw_psl.1.0.0.UPF: wavefunction(s)  3S 3P renormalized

     IMPORTANT: XC functional enforced from input :
     Exchange-correlation= PBE
                           (   1   4   3   4   0   0   0)
     Any further DFT definition will be discarded
     Please, verify this is what you really want

     Message from routine setup:
     using ibrav=0 with symmetry is DISCOURAGED, use correct ibrav instead

     K-points division:     npool     =       4
     R & G space division:  proc/nbgrp/npool/nimage =      36
     Subspace diagonalization in iterative solution of the eigenvalue problem:
     a serial algorithm will be used

     Using Slab Decomposition

     bravais-lattice index     =            0
     lattice parameter (alat)  =       9.3373  a.u.
     unit-cell volume          =     905.3038 (a.u.)^3
     number of atoms/cell      =           12
     number of atomic types    =            3
     number of electrons       =        32.00
     number of Kohn-Sham states=           20
     kinetic-energy cutoff     =      75.0000  Ry
     charge density cutoff     =     375.0000  Ry
     scf convergence threshold =      1.0E-08
     mixing beta               =       0.7000
     number of iterations used =            8  plain     mixing
     energy convergence thresh.=      1.0E-04
     force convergence thresh. =      1.0E-03
     Exchange-correlation= PBE
                           (   1   4   3   4   0   0   0)
     nstep                     =           50

     celldm(1)=   9.337326  celldm(2)=   0.000000  celldm(3)=   0.000000
     celldm(4)=   0.000000  celldm(5)=   0.000000  celldm(6)=   0.000000

     crystal axes: (cart. coord. in units of alat)
               a(1) = (   1.000000   0.000000   0.000000 )
               a(2) = (   0.000000   1.000000   0.000000 )
               a(3) = (   0.500000   0.500000   1.112056 )

     reciprocal axes: (cart. coord. in units 2 pi/alat)
               b(1) = (  1.000000  0.000000 -0.449617 )
               b(2) = (  0.000000  1.000000 -0.449617 )
               b(3) = (  0.000000  0.000000  0.899235 )

     PseudoPot. # 1 for Al read from file:
     /home/garima.iitr/.cache/.es/compmat/naalh4/Al.pbe-n-kjpaw_psl.1.0.0.UPF
     MD5 check sum: 502b6b27b9c6270cab5dd1084b96fa6d
     Pseudo is Projector augmented-wave + core cor, Zval =  3.0
     Generated using &quot;atomic&quot; code by A. Dal Corso  v.6.3
     Shape of augmentation charge: PSQ
     Using radial grid of 1135 points,  6 beta functions with:
                l(1) =   0
                l(2) =   0
                l(3) =   1
                l(4) =   1
                l(5) =   2
                l(6) =   2
     Q(r) pseudized with 0 coefficients

     PseudoPot. # 2 for H  read from file:
     /home/garima.iitr/.cache/.es/compmat/naalh4/H.pbe-rrkjus_psl.1.0.0.UPF
     MD5 check sum: 3f4114867bd07edc7f1424d066fc1888
     Pseudo is Ultrasoft, Zval =  1.0
     Generated using &quot;atomic&quot; code by A. Dal Corso  v.6.3MaX
     Using radial grid of  929 points,  2 beta functions with:
                l(1) =   0
                l(2) =   0
     Q(r) pseudized with 0 coefficients

     PseudoPot. # 3 for Na read from file:
     /home/garima.iitr/.cache/.es/compmat/naalh4/na_pbe_v1.5.uspp.F.UPF
     MD5 check sum: 44600605ef58000f06b90626533354dc
     Pseudo is Ultrasoft, Zval =  9.0
     Generated by new atomic code, or converted to UPF format
     Using radial grid of  819 points,  5 beta functions with:
                l(1) =   0
                l(2) =   0
                l(3) =   1
                l(4) =   1
                l(5) =   2
     Q(r) pseudized with  8 coefficients,  rinner =    1.250   1.250   1.250
                                                       1.250   1.250

     atomic species   valence    mass     pseudopotential
        Al             3.00    26.98100     Al( 1.00)
        H              1.00     1.00750     H ( 1.00)
        Na             9.00    22.98900     Na( 1.00)

      8 Sym. Ops., with inversion, found ( 6 have fractional translation)

   Cartesian axes

     site n.     atom                  positions (alat units)
         1           Al  tau(   1) = (   1.0000000   0.2500000   0.2780141  )
         2           Al  tau(   2) = (   0.5000000   1.2500000   0.8340423  )
         3           Na  tau(   3) = (   0.5000000   0.7500000   0.2780141  )
         4           Na  tau(   4) = (   1.0000000   0.7500000   0.8340423  )
         5           H   tau(   5) = (   0.3578100   1.0135100   0.6538447  )
         6           H   tau(   6) = (   0.7635100   0.3921900   0.0978165  )
         7           H   tau(   7) = (   1.2635100   1.3921900   1.0142399  )
         8           H   tau(   8) = (   0.8578100   1.0135100   0.4582117  )
         9           H   tau(   9) = (   0.6421900   0.4864900   0.6538447  )
        10           H   tau(  10) = (   1.1421900   0.4864900   0.4582117  )
        11           H   tau(  11) = (   0.7364900   1.1078100   1.0142399  )
        12           H   tau(  12) = (   0.2364900   0.1078100   0.0978165  )

     number of k points=    30  Marzari-Vanderbilt smearing, width (Ry)=  0.0050
                       cart. coord. in units 2pi/alat
        k(    1) = (   0.0000000   0.0000000   0.0000000), wk =   0.0185185
        k(    2) = (   0.0000000   0.0000000   0.2997450), wk =   0.0370370
        k(    3) = (   0.0000000   0.1666667  -0.0749362), wk =   0.0740741
        k(    4) = (   0.0000000   0.1666667   0.2248087), wk =   0.0740741
        k(    5) = (   0.0000000   0.1666667  -0.3746812), wk =   0.0740741
        k(    6) = (   0.0000000   0.3333333  -0.1498725), wk =   0.1481481
        k(    7) = (   0.0000000   0.3333333  -0.4496175), wk =   0.0740741
        k(    8) = (   0.0000000  -0.5000000   0.2248087), wk =   0.0370370
        k(    9) = (   0.0000000  -0.5000000   0.5245537), wk =   0.0740741
        k(   10) = (   0.1666667   0.1666667  -0.1498725), wk =   0.0740741
        k(   11) = (   0.1666667   0.1666667  -0.4496175), wk =   0.0370370
        k(   12) = (   0.1666667   0.3333333  -0.2248087), wk =   0.0740741
        k(   13) = (   0.1666667   0.3333333   0.0749362), wk =   0.0740741
        k(   14) = (   0.1666667   0.3333333  -0.5245537), wk =   0.0740741
        k(   15) = (   0.1666667  -0.5000000   0.1498725), wk =   0.0740741
        k(   16) = (   0.1666667  -0.5000000   0.4496175), wk =   0.0370370
        k(   17) = (   0.1666667  -0.1666667  -0.0000000), wk =   0.0370370
        k(   18) = (   0.1666667  -0.1666667   0.2997450), wk =   0.0740741
        k(   19) = (   0.3333333   0.3333333  -0.2997450), wk =   0.1481481
        k(   20) = (   0.3333333   0.3333333   0.0000000), wk =   0.0740741
        k(   21) = (   0.3333333  -0.5000000   0.0749362), wk =   0.0740741
        k(   22) = (   0.3333333  -0.5000000  -0.2248087), wk =   0.0740741
        k(   23) = (  -0.5000000  -0.5000000   0.4496175), wk =   0.0185185
        k(   24) = (  -0.5000000  -0.5000000   0.7493625), wk =   0.0370370
        k(   25) = (   0.3333333   0.1666667   0.2248087), wk =   0.0740741
        k(   26) = (   0.3333333   0.1666667  -0.0749362), wk =   0.0740741
        k(   27) = (   0.3333333   0.1666667   0.5245537), wk =   0.0740741
        k(   28) = (  -0.5000000   0.1666667  -0.1498725), wk =   0.0740741
        k(   29) = (  -0.5000000   0.1666667  -0.4496175), wk =   0.0370370
        k(   30) = (  -0.5000000   0.3333333  -0.0749362), wk =   0.0740741

     Initial potential from superposition of free atoms

     starting charge      31.9828, renormalised to      32.0000
     Starting wfcs are   26 randomized atomic wfcs
     Checking if some PAW data can be deallocated...

     Self-consistent Calculation

     iteration #  1     ecut=    75.00 Ry     beta= 0.70
     Davidson diagonalization with overlap
     ethr =  1.00E-02,  avg # of iterations =  3.9

     total energy              =    -279.10888508 Ry
     estimated scf accuracy    <       0.55161435 Ry

[...]

     End of self-consistent calculation

          k = 0.0000 0.0000 0.0000 (  9889 PWs)   bands (ev):

   -49.8254 -49.8239 -21.7585 -21.7508 -21.7508 -21.7448 -21.7448 -21.7345
    -6.2373  -2.9955  -2.2682  -1.2826  -1.2826  -0.8764  -0.8764  -0.1026
     4.7474   4.8205   5.4554   6.2875

[...]

          k =-0.5000-0.5000 0.4496 (  9930 PWs)   bands (ev):

[...]

     the Fermi energy is     0.5801 ev

!    total energy              =    -279.14854706 Ry
     estimated scf accuracy    <          1.3E-09 Ry
     smearing contrib. (-TS)   =       0.00000000 Ry
     internal energy E=F+TS    =    -279.14854706 Ry

     The total energy is F=E-TS. E is the sum of the following terms:
     one-electron contribution =    -172.69232618 Ry
     hartree contribution      =      92.93409428 Ry
     xc contribution           =     -39.59930978 Ry
     ewald contribution        =     -90.40844891 Ry
     one-center paw contrib.   =     -69.38255647 Ry

     convergence has been achieved in   8 iterations

     Forces acting on atoms (cartesian axes, Ry/au):

     atom    1 type  1   force =     0.00000000    0.00000000    0.00000000
     atom    2 type  1   force =     0.00000000    0.00000000    0.00000000
     atom    3 type  3   force =     0.00000000    0.00000000    0.00000000
     atom    4 type  3   force =     0.00000000    0.00000000    0.00000000
     atom    5 type  2   force =    -0.00204551   -0.00298165   -0.00273091
     atom    6 type  2   force =    -0.00298165    0.00204551   -0.00273091
     atom    7 type  2   force =    -0.00298165    0.00204551    0.00273091
     atom    8 type  2   force =    -0.00204551   -0.00298165    0.00273091
     atom    9 type  2   force =     0.00204551    0.00298165   -0.00273091
     atom   10 type  2   force =     0.00204551    0.00298165    0.00273091
     atom   11 type  2   force =     0.00298165   -0.00204551    0.00273091
     atom   12 type  2   force =     0.00298165   -0.00204551   -0.00273091

     Total force =     0.012816     Total SCF correction =     0.000002

     Computing stress (Cartesian axis) and pressure

          total   stress  (Ry/bohr**3)                   (kbar)     P=       13.70
   0.00009662   0.00000000   0.00000000           14.21        0.00        0.00
   0.00000000   0.00009662   0.00000000            0.00       14.21        0.00
   0.00000000   0.00000000   0.00008619            0.00        0.00       12.68

     BFGS Geometry Optimization
     Energy error            =      0.0E+00 Ry
     Gradient error          =      3.0E-03 Ry/Bohr

     number of scf cycles    =   1
     number of bfgs steps    =   0

     energy             new  =    -279.1485470607 Ry

     new trust radius        =       0.0045312523 bohr
     new conv_thr            =       0.0000000100 Ry

ATOMIC_POSITIONS (crystal)
Al            0.8750000000        0.1250000000        0.2500000000
Al            0.1250000000        0.8750000000        0.7500000000
Na            0.3750000000        0.6250000000        0.2500000000
Na            0.6250000000        0.3750000000        0.7500000000
H             0.0637424329        0.7193421745        0.5876969984
H             0.7193421745        0.3485605688        0.0876969984
H             0.8070391729        0.9362575671        0.9123030016
H             0.6514394312        0.8070391729        0.4123030016
H             0.3485605688        0.1929608271        0.5876969984
H             0.9362575671        0.2806578255        0.4123030016
H             0.2806578255        0.6514394312        0.9123030016
H             0.1929608271        0.0637424329        0.0876969984

     Writing config-only to output data dir temp/naalh4.save/
     NEW-OLD atomic charge density approx. for the potential

[...]

     Threshold (ethr) on eigenvalues was too large:
     Diagonalizing with lowered threshold

     Davidson diagonalization with overlap
     ethr =  4.19E-08,  avg # of iterations =  1.8

[...]

     Energy error            =      1.4E-04 Ry
     Gradient error          =      2.2E-03 Ry/Bohr

[...]

     energy             old  =    -279.1485470607 Ry
     energy             new  =    -279.1486912767 Ry

     CASE: energy            _new < energy            _old

[...]

     Threshold (ethr) on eigenvalues was too large:
     Diagonalizing with lowered threshold

     Davidson diagonalization with overlap
     ethr =  4.99E-08,  avg # of iterations =  1.7

[...]

     number of scf cycles    =   3
     number of bfgs steps    =   2

     energy             old  =    -279.1486912767 Ry
     energy             new  =    -279.1488042023 Ry

     CASE: energy            _new < energy            _old

     new trust radius        =       0.0074765663 bohr
     new conv_thr            =       0.0000000001 Ry

ATOMIC_POSITIONS (crystal)
Al            0.8750000000        0.1250000000        0.2500000000
Al            0.1250000000        0.8750000000        0.7500000000
Na            0.3750000000        0.6250000000        0.2500000000
Na            0.6250000000        0.3750000000        0.7500000000
H             0.0634757715        0.7189029040        0.5869441028
H             0.7189029040        0.3495801257        0.0869441028
H             0.8058470067        0.9365242285        0.9130558972
H             0.6504198743        0.8058470067        0.4130558972
H             0.3495801257        0.1941529933        0.5869441028
H             0.9365242285        0.2810970960        0.4130558972
H             0.2810970960        0.6504198743        0.9130558972
H             0.1941529933        0.0634757715        0.0869441028

     Writing config-only to output data dir temp/naalh4.save/
     NEW-OLD atomic charge density approx. for the potential

     Self-consistent Calculation

[...]

     total energy              =    -279.14888607 Ry
     estimated scf accuracy    <          1.1E-10 Ry

     iteration #  7     ecut=    75.00 Ry     beta= 0.70
     Davidson diagonalization with overlap
     ethr =  3.56E-13,  avg # of iterations =  2.0

     End of self-consistent calculation

[...]

          k = 0.3333 0.1667 0.5246 (  9926 PWs)   bands (ev):

[...]

          k =-0.5000 0.3333-0.0749 (  9934 PWs)   bands (ev):

   -49.8046 -49.8043 -21.7375 -21.7359 -21.7297 -21.7278 -21.7198 -21.7173
    -4.8615  -4.1387  -2.4764  -2.0657  -1.6091  -1.2530  -0.9500  -0.3465
     4.9156   5.7092   6.2786   6.8334

     the Fermi energy is     0.5885 ev

!    total energy              =    -279.14888607 Ry
     estimated scf accuracy    <          2.5E-12 Ry
     smearing contrib. (-TS)   =       0.00000000 Ry
     internal energy E=F+TS    =    -279.14888607 Ry

     The total energy is F=E-TS. E is the sum of the following terms:
     one-electron contribution =    -172.76743195 Ry
     hartree contribution      =      92.97774923 Ry
     xc contribution           =     -39.58171273 Ry
     ewald contribution        =     -90.39896265 Ry
     one-center paw contrib.   =     -69.37852796 Ry

     convergence has been achieved in   7 iterations

     Forces acting on atoms (cartesian axes, Ry/au):

     atom    1 type  1   force =     0.00000000    0.00000000    0.00000000
     atom    2 type  1   force =     0.00000000    0.00000000    0.00000000
     atom    3 type  3   force =     0.00000000    0.00000000    0.00000000
     atom    4 type  3   force =     0.00000000    0.00000000    0.00000000
     atom    5 type  2   force =    -0.00042132   -0.00001847   -0.00044597
     atom    6 type  2   force =    -0.00001847    0.00042132   -0.00044597
     atom    7 type  2   force =    -0.00001847    0.00042132    0.00044597
     atom    8 type  2   force =    -0.00042132   -0.00001847    0.00044597
     atom    9 type  2   force =     0.00042132    0.00001847   -0.00044597
     atom   10 type  2   force =     0.00042132    0.00001847    0.00044597
     atom   11 type  2   force =     0.00001847   -0.00042132    0.00044597
     atom   12 type  2   force =     0.00001847   -0.00042132   -0.00044597

     Total force =     0.001736     Total SCF correction =     0.000001

     Computing stress (Cartesian axis) and pressure

          total   stress  (Ry/bohr**3)                   (kbar)     P=        9.24
   0.00006559   0.00000000   0.00000000            9.65        0.00        0.00
   0.00000000   0.00006559   0.00000000            0.00        9.65        0.00
   0.00000000   0.00000000   0.00005720            0.00        0.00        8.41

     Energy error            =      8.2E-05 Ry
     Gradient error          =      4.5E-04 Ry/Bohr

     bfgs converged in   4 scf cycles and   3 bfgs steps
     (criteria: energy <  1.0E-04 Ry, force <  1.0E-03 Ry/Bohr)

     End of BFGS Geometry Optimization

     Final energy             =    -279.1488860654 Ry

     File temp/naalh4.bfgs deleted, as requested
Begin final coordinates

ATOMIC_POSITIONS (crystal)
Al            0.8750000000        0.1250000000        0.2500000000
Al            0.1250000000        0.8750000000        0.7500000000
Na            0.3750000000        0.6250000000        0.2500000000
Na            0.6250000000        0.3750000000        0.7500000000
H             0.0634757715        0.7189029040        0.5869441028
H             0.7189029040        0.3495801257        0.0869441028
H             0.8058470067        0.9365242285        0.9130558972
H             0.6504198743        0.8058470067        0.4130558972
H             0.3495801257        0.1941529933        0.5869441028
H             0.9365242285        0.2810970960        0.4130558972
H             0.2810970960        0.6504198743        0.9130558972
H             0.1941529933        0.0634757715        0.0869441028
End final coordinates

     General routines

     Parallel routines

   This run was terminated on:  12:18: 6  31Oct2023

   JOB DONE.
Job execution finished at: Tue Oct 31 12:18:06 IST 2023