     Program PWSCF v.7.1 starts on 31Oct2023 at 12:27:28

     Reading input from naalh4.in

     Current dimensions of program PWSCF are:
     Max number of different atomic species (ntypx) = 10
     Max number of k-points (npk) =  40000
     Max angular momentum in pseudopotentials (lmaxx) =  4
     file Al.pbe-n-kjpaw_psl.1.0.0.UPF: wavefunction(s)  3S 3P renormalized

     IMPORTANT: XC functional enforced from input :
     Exchange-correlation= PBE
                           (   1   4   3   4   0   0   0)
     Any further DFT definition will be discarded
     Please, verify this is what you really want

     Message from routine setup:
     using ibrav=0 with symmetry is DISCOURAGED, use correct ibrav instead

     K-points division:     npool     =       4
     R & G space division:  proc/nbgrp/npool/nimage =      36
     Subspace diagonalization in iterative solution of the eigenvalue problem:
     a serial algorithm will be used

     Using Slab Decomposition

     bravais-lattice index     =            0
     lattice parameter (alat)  =       9.3373  a.u.
     unit-cell volume          =     905.3038 (a.u.)^3
     number of atoms/cell      =           12
     number of atomic types    =            3
     number of electrons       =        32.00
     number of Kohn-Sham states=           20
     kinetic-energy cutoff     =      75.0000  Ry
     charge density cutoff     =     375.0000  Ry
     scf convergence threshold =      1.0E-08
     mixing beta               =       0.7000
     number of iterations used =            8  plain     mixing
     energy convergence thresh.=      1.0E-04
     force convergence thresh. =      1.0E-03
     press convergence thresh. =      5.0E-01
     Exchange-correlation= PBE
                           (   1   4   3   4   0   0   0)
     nstep                     =           50

     celldm(1)=   9.337326  celldm(2)=   0.000000  celldm(3)=   0.000000
     celldm(4)=   0.000000  celldm(5)=   0.000000  celldm(6)=   0.000000

     crystal axes: (cart. coord. in units of alat)
               a(1) = (   1.000000   0.000000   0.000000 )
               a(2) = (   0.000000   1.000000   0.000000 )
               a(3) = (   0.500000   0.500000   1.112056 )

     reciprocal axes: (cart. coord. in units 2 pi/alat)
               b(1) = (  1.000000  0.000000 -0.449617 )
               b(2) = (  0.000000  1.000000 -0.449617 )
               b(3) = (  0.000000  0.000000  0.899235 )

     PseudoPot. # 1 for Al read from file:
     /home/garima.iitr/.cache/.es/compmat/naalh4/Al.pbe-n-kjpaw_psl.1.0.0.UPF
     MD5 check sum: 502b6b27b9c6270cab5dd1084b96fa6d
     Pseudo is Projector augmented-wave + core cor, Zval =  3.0
     Generated using &quot;atomic&quot; code by A. Dal Corso  v.6.3
     Shape of augmentation charge: PSQ
     Using radial grid of 1135 points,  6 beta functions with:
                l(1) =   0
                l(2) =   0
                l(3) =   1
                l(4) =   1
                l(5) =   2
                l(6) =   2
     Q(r) pseudized with 0 coefficients

     PseudoPot. # 2 for H  read from file:
     /home/garima.iitr/.cache/.es/compmat/naalh4/H.pbe-rrkjus_psl.1.0.0.UPF
     MD5 check sum: 3f4114867bd07edc7f1424d066fc1888
     Pseudo is Ultrasoft, Zval =  1.0
     Generated using &quot;atomic&quot; code by A. Dal Corso  v.6.3MaX
     Using radial grid of  929 points,  2 beta functions with:
                l(1) =   0
                l(2) =   0
     Q(r) pseudized with 0 coefficients

     PseudoPot. # 3 for Na read from file:
     /home/garima.iitr/.cache/.es/compmat/naalh4/na_pbe_v1.5.uspp.F.UPF
     MD5 check sum: 44600605ef58000f06b90626533354dc
     Pseudo is Ultrasoft, Zval =  9.0
     Generated by new atomic code, or converted to UPF format
     Using radial grid of  819 points,  5 beta functions with:
                l(1) =   0
                l(2) =   0
                l(3) =   1
                l(4) =   1
                l(5) =   2
     Q(r) pseudized with  8 coefficients,  rinner =    1.250   1.250   1.250
                                                       1.250   1.250

     atomic species   valence    mass     pseudopotential
        Al             3.00    26.98100     Al( 1.00)
        H              1.00     1.00750     H ( 1.00)
        Na             9.00    22.98900     Na( 1.00)

      8 Sym. Ops., with inversion, found ( 6 have fractional translation)

   Cartesian axes

     site n.     atom                  positions (alat units)
         1           Al  tau(   1) = (   1.0000000   0.2500000   0.2780141  )
         2           Al  tau(   2) = (   0.5000000   1.2500000   0.8340423  )
         3           Na  tau(   3) = (   0.5000000   0.7500000   0.2780141  )
         4           Na  tau(   4) = (   1.0000000   0.7500000   0.8340423  )
         5           H   tau(   5) = (   0.3569478   1.0123750   0.6527149  )
         6           H   tau(   6) = (   0.7623750   0.3930522   0.0966867  )
         7           H   tau(   7) = (   1.2623750   1.3930522   1.0153696  )
         8           H   tau(   8) = (   0.8569478   1.0123750   0.4593414  )
         9           H   tau(   9) = (   0.6430522   0.4876250   0.6527149  )
        10           H   tau(  10) = (   1.1430522   0.4876250   0.4593414  )
        11           H   tau(  11) = (   0.7376250   1.1069478   1.0153696  )
        12           H   tau(  12) = (   0.2376250   0.1069478   0.0966867  )

     number of k points=    30  Marzari-Vanderbilt smearing, width (Ry)=  0.0050
                       cart. coord. in units 2pi/alat
        k(    1) = (   0.0000000   0.0000000   0.0000000), wk =   0.0185185
        k(    2) = (   0.0000000   0.0000000   0.2997450), wk =   0.0370370
        k(    3) = (   0.0000000   0.1666667  -0.0749362), wk =   0.0740741
        k(    4) = (   0.0000000   0.1666667   0.2248087), wk =   0.0740741
        k(    5) = (   0.0000000   0.1666667  -0.3746812), wk =   0.0740741
        k(    6) = (   0.0000000   0.3333333  -0.1498725), wk =   0.1481481
        k(    7) = (   0.0000000   0.3333333  -0.4496175), wk =   0.0740741
        k(    8) = (   0.0000000  -0.5000000   0.2248087), wk =   0.0370370
        k(    9) = (   0.0000000  -0.5000000   0.5245537), wk =   0.0740741
        k(   10) = (   0.1666667   0.1666667  -0.1498725), wk =   0.0740741
        k(   11) = (   0.1666667   0.1666667  -0.4496175), wk =   0.0370370
        k(   12) = (   0.1666667   0.3333333  -0.2248087), wk =   0.0740741
        k(   13) = (   0.1666667   0.3333333   0.0749362), wk =   0.0740741
        k(   14) = (   0.1666667   0.3333333  -0.5245537), wk =   0.0740741
        k(   15) = (   0.1666667  -0.5000000   0.1498725), wk =   0.0740741
        k(   16) = (   0.1666667  -0.5000000   0.4496175), wk =   0.0370370
        k(   17) = (   0.1666667  -0.1666667  -0.0000000), wk =   0.0370370
        k(   18) = (   0.1666667  -0.1666667   0.2997450), wk =   0.0740741
        k(   19) = (   0.3333333   0.3333333  -0.2997450), wk =   0.1481481
        k(   20) = (   0.3333333   0.3333333   0.0000000), wk =   0.0740741
        k(   21) = (   0.3333333  -0.5000000   0.0749362), wk =   0.0740741
        k(   22) = (   0.3333333  -0.5000000  -0.2248087), wk =   0.0740741
        k(   23) = (  -0.5000000  -0.5000000   0.4496175), wk =   0.0185185
        k(   24) = (  -0.5000000  -0.5000000   0.7493625), wk =   0.0370370
        k(   25) = (   0.3333333   0.1666667   0.2248087), wk =   0.0740741
        k(   26) = (   0.3333333   0.1666667  -0.0749362), wk =   0.0740741
        k(   27) = (   0.3333333   0.1666667   0.5245537), wk =   0.0740741
        k(   28) = (  -0.5000000   0.1666667  -0.1498725), wk =   0.0740741
        k(   29) = (  -0.5000000   0.1666667  -0.4496175), wk =   0.0370370
        k(   30) = (  -0.5000000   0.3333333  -0.0749362), wk =   0.0740741

     Initial potential from superposition of free atoms

     starting charge      31.9828, renormalised to      32.0000
     Starting wfcs are   26 randomized atomic wfcs
     Checking if some PAW data can be deallocated...

     Self-consistent Calculation

     iteration #  1     ecut=    75.00 Ry     beta= 0.70
     Davidson diagonalization with overlap
     ethr =  1.00E-02,  avg # of iterations =  3.9

     total energy              =    -279.10955655 Ry
     estimated scf accuracy    <       0.54326121 Ry

[...]

     End of self-consistent calculation

          k = 0.0000 0.0000 0.0000 (  9889 PWs)   bands (ev):

   -49.8052 -49.8037 -21.7386 -21.7310 -21.7310 -21.7250 -21.7250 -21.7145
    -6.2258  -2.9559  -2.2715  -1.2730  -1.2730  -0.8653  -0.8653  -0.0884
     4.7293   4.8069   5.4522   6.2709

[...]

          k =-0.5000-0.5000 0.4496 (  9930 PWs)   bands (ev):

[...]

     the Fermi energy is     0.5885 ev

!    total energy              =    -279.14888607 Ry
     estimated scf accuracy    <          6.1E-10 Ry
     smearing contrib. (-TS)   =       0.00000000 Ry
     internal energy E=F+TS    =    -279.14888607 Ry

     The total energy is F=E-TS. E is the sum of the following terms:
     one-electron contribution =    -172.76745924 Ry
     hartree contribution      =      92.97778837 Ry
     xc contribution           =     -39.58172442 Ry
     ewald contribution        =     -90.39896265 Ry
     one-center paw contrib.   =     -69.37852813 Ry

     convergence has been achieved in   8 iterations

     Forces acting on atoms (cartesian axes, Ry/au):

     atom    1 type  1   force =     0.00000000    0.00000000    0.00000000
     atom    2 type  1   force =     0.00000000    0.00000000   -0.00000000
     atom    3 type  3   force =     0.00000000    0.00000000   -0.00000000
     atom    4 type  3   force =     0.00000000    0.00000000   -0.00000000
     atom    5 type  2   force =    -0.00042104   -0.00001802   -0.00044551
     atom    6 type  2   force =    -0.00001802    0.00042104   -0.00044551
     atom    7 type  2   force =    -0.00001802    0.00042104    0.00044551
     atom    8 type  2   force =    -0.00042104   -0.00001802    0.00044551
     atom    9 type  2   force =     0.00042104    0.00001802   -0.00044551
     atom   10 type  2   force =     0.00042104    0.00001802    0.00044551
     atom   11 type  2   force =     0.00001802   -0.00042104    0.00044551
     atom   12 type  2   force =     0.00001802   -0.00042104   -0.00044551

     Total force =     0.001735     Total SCF correction =     0.000003

     Computing stress (Cartesian axis) and pressure

          total   stress  (Ry/bohr**3)                   (kbar)     P=        9.25
   0.00006567   0.00000000   0.00000000            9.66        0.00        0.00
   0.00000000   0.00006567   0.00000000            0.00        9.66        0.00
   0.00000000   0.00000000   0.00005728            0.00        0.00        8.43

     BFGS Geometry Optimization
     Energy error            =      0.0E+00 Ry
     Gradient error          =      4.5E-04 Ry/Bohr
     Cell gradient error     =      9.7E+00 kbar

     number of scf cycles    =   1
     number of bfgs steps    =   0

     enthalpy           new  =    -279.1488860653 Ry

     new trust radius        =       0.0098789876 bohr
     new conv_thr            =       0.0000000100 Ry

     new unit-cell volume =    909.57934 a.u.^3 (   134.78575 Ang^3 )
     density =      1.33054 g/cm^3

CELL_PARAMETERS (alat=  9.33732575)
   1.001641668   0.000000000  -0.000000000
   0.000000000   1.001641668   0.000000000
   0.500820834   0.500820834   1.113648899

ATOMIC_POSITIONS (crystal)
Al            0.8750000000        0.1250000000        0.2500000000
Al            0.1250000000        0.8750000000        0.7500000000
Na            0.3750000000        0.6250000000        0.2500000000
Na            0.6250000000        0.3750000000        0.7500000000
H             0.0634521317        0.7189224265        0.5869011975
H             0.7189224265        0.3496466708        0.0869011975
H             0.8058236239        0.9365478683        0.9130988025
H             0.6503533292        0.8058236239        0.4130988025
H             0.3496466708        0.1941763761        0.5869011975
H             0.9365478683        0.2810775735        0.4130988025
H             0.2810775735        0.6503533292        0.9130988025
H             0.1941763761        0.0634521317        0.0869011975

     Writing config-only to output data dir temp/naalh4.save/
     NEW-OLD atomic charge density approx. for the potential
     extrapolated charge   32.15034, renormalised to   32.00000

[...]

     Energy error            =      2.4E-04 Ry
     Gradient error          =      7.2E-04 Ry/Bohr
     Cell gradient error     =      7.3E+00 kbar

[...]

     enthalpy           old  =    -279.1488860653 Ry
     enthalpy           new  =    -279.1491240669 Ry

     CASE: enthalpy          _new < enthalpy          _old

[...]

     Threshold (ethr) on eigenvalues was too large:
     Diagonalizing with lowered threshold

     Davidson diagonalization with overlap
     ethr =  8.44E-08,  avg # of iterations =  1.6

[...]

     number of scf cycles    =   8
     number of bfgs steps    =   7

     enthalpy           old  =    -279.1499388741 Ry
     enthalpy           new  =    -279.1499723505 Ry

     CASE: enthalpy          _new < enthalpy          _old

     new trust radius        =       0.0031313405 bohr
     new conv_thr            =            1.0E-10 Ry

     new unit-cell volume =    943.35071 a.u.^3 (   139.79015 Ang^3 )
     density =      1.28291 g/cm^3

[...]

ATOMIC_POSITIONS (crystal)
Al            0.8750000000        0.1250000000        0.2500000000
Al            0.1250000000        0.8750000000        0.7500000000
Na            0.3750000000        0.6250000000        0.2500000000
Na            0.6250000000        0.3750000000        0.7500000000
H             0.0639572663        0.7212760273        0.5882861550
H             0.7212760273        0.3477565787        0.0882861550
H             0.8095621821        0.9360427337        0.9117138450
H             0.6522434213        0.8095621821        0.4117138450
H             0.3477565787        0.1904378179        0.5882861550
H             0.9360427337        0.2787239727        0.4117138450
H             0.2787239727        0.6522434213        0.9117138450
H             0.1904378179        0.0639572663        0.0882861550

     Writing config-only to output data dir temp/naalh4.save/
     NEW-OLD atomic charge density approx. for the potential
     extrapolated charge   31.95478, renormalised to   32.00000

[...]

     Energy error            =      4.7E-06 Ry
     Gradient error          =      1.0E-04 Ry/Bohr
     Cell gradient error     =      1.8E-01 kbar

     bfgs converged in   9 scf cycles and   8 bfgs steps
     (criteria: energy <  1.0E-04 Ry, force <  1.0E-03 Ry/Bohr, cell <  5.0E-01 kbar)

     End of BFGS Geometry Optimization

     Final enthalpy           =    -279.1499770378 Ry

     File temp/naalh4.bfgs deleted, as requested
Begin final coordinates
     new unit-cell volume =    943.35071 a.u.^3 (   139.79015 Ang^3 )
     density =      1.28291 g/cm^3

CELL_PARAMETERS (alat=  9.33732575)
   1.014253902   0.000000000  -0.000000000
  -0.000000000   1.014253902  -0.000000000
   0.507126951   0.507126951   1.126450927

ATOMIC_POSITIONS (crystal)
Al            0.8750000000        0.1250000000        0.2500000000
Al            0.1250000000        0.8750000000        0.7500000000
Na            0.3750000000        0.6250000000        0.2500000000
Na            0.6250000000        0.3750000000        0.7500000000
H             0.0639572663        0.7212760273        0.5882861550
H             0.7212760273        0.3477565787        0.0882861550
H             0.8095621821        0.9360427337        0.9117138450
H             0.6522434213        0.8095621821        0.4117138450
H             0.3477565787        0.1904378179        0.5882861550
H             0.9360427337        0.2787239727        0.4117138450
H             0.2787239727        0.6522434213        0.9117138450
H             0.1904378179        0.0639572663        0.0882861550
End final coordinates

     Writing config-only to output data dir temp/naalh4.save/

     Final scf calculation at the relaxed structure.
     The G-vectors are recalculated for the final unit cell
     Results may differ from those at the preceding step.

     Using Slab Decomposition

     bravais-lattice index     =            0
     lattice parameter (alat)  =       9.3373  a.u.
     unit-cell volume          =     943.3507 (a.u.)^3
     number of atoms/cell      =           12
     number of atomic types    =            3
     number of electrons       =        32.00
     number of Kohn-Sham states=           20
     kinetic-energy cutoff     =      75.0000  Ry
     charge density cutoff     =     375.0000  Ry
     scf convergence threshold =      1.0E-10
     mixing beta               =       0.7000
     number of iterations used =            8  plain     mixing
     press convergence thresh. =      5.0E-01
     Exchange-correlation= PBE
                           (   1   4   3   4   0   0   0)

     celldm(1)=   9.337326  celldm(2)=   0.000000  celldm(3)=   0.000000
     celldm(4)=   0.000000  celldm(5)=   0.000000  celldm(6)=   0.000000

     crystal axes: (cart. coord. in units of alat)
               a(1) = (   1.014254   0.000000  -0.000000 )
               a(2) = (  -0.000000   1.014254  -0.000000 )
               a(3) = (   0.507127   0.507127   1.126451 )

     reciprocal axes: (cart. coord. in units 2 pi/alat)
               b(1) = (  0.985946 -0.000000 -0.443872 )
               b(2) = ( -0.000000  0.985946 -0.443872 )
               b(3) = (  0.000000  0.000000  0.887744 )

     PseudoPot. # 1 for Al read from file:
     /home/garima.iitr/.cache/.es/compmat/naalh4/Al.pbe-n-kjpaw_psl.1.0.0.UPF
     MD5 check sum: 502b6b27b9c6270cab5dd1084b96fa6d
     Pseudo is Projector augmented-wave + core cor, Zval =  3.0
     Generated using &quot;atomic&quot; code by A. Dal Corso  v.6.3
     Shape of augmentation charge: PSQ
     Using radial grid of 1135 points,  6 beta functions with:
                l(1) =   0
                l(2) =   0
                l(3) =   1
                l(4) =   1
                l(5) =   2
                l(6) =   2
     Q(r) pseudized with 0 coefficients

     PseudoPot. # 2 for H  read from file:
     /home/garima.iitr/.cache/.es/compmat/naalh4/H.pbe-rrkjus_psl.1.0.0.UPF
     MD5 check sum: 3f4114867bd07edc7f1424d066fc1888
     Pseudo is Ultrasoft, Zval =  1.0
     Generated using &quot;atomic&quot; code by A. Dal Corso  v.6.3MaX
     Using radial grid of  929 points,  2 beta functions with:
                l(1) =   0
                l(2) =   0
     Q(r) pseudized with 0 coefficients

     PseudoPot. # 3 for Na read from file:
     /home/garima.iitr/.cache/.es/compmat/naalh4/na_pbe_v1.5.uspp.F.UPF
     MD5 check sum: 44600605ef58000f06b90626533354dc
     Pseudo is Ultrasoft, Zval =  9.0
     Generated by new atomic code, or converted to UPF format
     Using radial grid of  819 points,  5 beta functions with:
                l(1) =   0
                l(2) =   0
                l(3) =   1
                l(4) =   1
                l(5) =   2
     Q(r) pseudized with  8 coefficients,  rinner =    1.250   1.250   1.250
                                                       1.250   1.250

     atomic species   valence    mass     pseudopotential
        Al             3.00    26.98100     Al( 1.00)
        H              1.00     1.00750     H ( 1.00)
        Na             9.00    22.98900     Na( 1.00)

      8 Sym. Ops., with inversion, found ( 6 have fractional translation)

   Cartesian axes

     site n.     atom                  positions (alat units)
         1           Al  tau(   1) = (   1.0142539   0.2535635   0.2816127  )
         2           Al  tau(   2) = (   0.5071270   1.2678174   0.8448382  )
         3           Na  tau(   3) = (   0.5071270   0.7606904   0.2816127  )
         4           Na  tau(   4) = (   1.0142539   0.7606904   0.8448382  )
         5           H   tau(   5) = (   0.3632047   1.0298928   0.6626755  )
         6           H   tau(   6) = (   0.7763293   0.3974858   0.0994500  )
         7           H   tau(   7) = (   1.2834563   1.4117397   1.0270009  )
         8           H   tau(   8) = (   0.8703316   1.0298928   0.4637754  )
         9           H   tau(   9) = (   0.6510492   0.4914881   0.6626755  )
        10           H   tau(  10) = (   1.1581762   0.4914881   0.4637754  )
        11           H   tau(  11) = (   0.7450515   1.1238951   1.0270009  )
        12           H   tau(  12) = (   0.2379246   0.1096412   0.0994500  )

     number of k points=    30  Marzari-Vanderbilt smearing, width (Ry)=  0.0050
                       cart. coord. in units 2pi/alat
        k(    1) = (   0.0000000   0.0000000   0.0000000), wk =   0.0185185
        k(    2) = (   0.0000000   0.0000000   0.2959147), wk =   0.0370370
        k(    3) = (  -0.0000000   0.1643244  -0.0739787), wk =   0.0740741
        k(    4) = (   0.0000000   0.1643244   0.2219360), wk =   0.0740741
        k(    5) = (  -0.0000000   0.1643244  -0.3698933), wk =   0.0740741
        k(    6) = (  -0.0000000   0.3286488  -0.1479573), wk =   0.1481481
        k(    7) = (  -0.0000000   0.3286488  -0.4438720), wk =   0.0740741
        k(    8) = (   0.0000000  -0.4929732   0.2219360), wk =   0.0370370
        k(    9) = (   0.0000000  -0.4929732   0.5178506), wk =   0.0740741
        k(   10) = (   0.1643244   0.1643244  -0.1479573), wk =   0.0740741
        k(   11) = (   0.1643244   0.1643244  -0.4438720), wk =   0.0370370
        k(   12) = (   0.1643244   0.3286488  -0.2219360), wk =   0.0740741
        k(   13) = (   0.1643244   0.3286488   0.0739787), wk =   0.0740741
        k(   14) = (   0.1643244   0.3286488  -0.5178506), wk =   0.0740741
        k(   15) = (   0.1643244  -0.4929732   0.1479573), wk =   0.0740741
        k(   16) = (   0.1643244  -0.4929732   0.4438720), wk =   0.0370370
        k(   17) = (   0.1643244  -0.1643244   0.0000000), wk =   0.0370370
        k(   18) = (   0.1643244  -0.1643244   0.2959147), wk =   0.0740741
        k(   19) = (   0.3286488   0.3286488  -0.2959147), wk =   0.1481481
        k(   20) = (   0.3286488   0.3286488   0.0000000), wk =   0.0740741
        k(   21) = (   0.3286488  -0.4929732   0.0739787), wk =   0.0740741
        k(   22) = (   0.3286488  -0.4929732  -0.2219360), wk =   0.0740741
        k(   23) = (  -0.4929732  -0.4929732   0.4438720), wk =   0.0185185
        k(   24) = (  -0.4929732  -0.4929732   0.7397866), wk =   0.0370370
        k(   25) = (   0.3286488   0.1643244   0.2219360), wk =   0.0740741
        k(   26) = (   0.3286488   0.1643244  -0.0739787), wk =   0.0740741
        k(   27) = (   0.3286488   0.1643244   0.5178506), wk =   0.0740741
        k(   28) = (  -0.4929732   0.1643244  -0.1479573), wk =   0.0740741
        k(   29) = (  -0.4929732   0.1643244  -0.4438720), wk =   0.0370370
        k(   30) = (  -0.4929732   0.3286488  -0.0739787), wk =   0.0740741

     Initial potential from superposition of free atoms

     starting charge      31.9828, renormalised to      32.0000
     Starting wfcs are   26 randomized atomic wfcs
     Checking if some PAW data can be deallocated...

     Self-consistent Calculation

     iteration #  1     ecut=    75.00 Ry     beta= 0.70
     Davidson diagonalization with overlap
     c_bands:  1 eigenvalues not converged
     c_bands:  1 eigenvalues not converged
     c_bands:  1 eigenvalues not converged
     c_bands:  3 eigenvalues not converged
     c_bands:  1 eigenvalues not converged
     c_bands:  1 eigenvalues not converged
     c_bands:  1 eigenvalues not converged
     c_bands:  1 eigenvalues not converged
     ethr =  1.00E-06,  avg # of iterations = 19.8

[...]

     total energy              =    -279.15002251 Ry
     estimated scf accuracy    <          4.1E-10 Ry

     iteration # 10     ecut=    75.00 Ry     beta= 0.70
     Davidson diagonalization with overlap
     ethr =  1.28E-12,  avg # of iterations =  3.2

     End of self-consistent calculation

[...]

          k = 0.3286 0.1643 0.5179 ( 10335 PWs)   bands (ev):

[...]

          k =-0.4930 0.3286-0.0740 ( 10367 PWs)   bands (ev):

   -50.1355 -50.1352 -22.0638 -22.0624 -22.0570 -22.0553 -22.0489 -22.0469
    -5.0016  -4.3168  -2.5907  -2.2032  -1.7710  -1.4335  -1.1287  -0.5666
     4.6650   5.4136   5.9727   6.4710

     the Fermi energy is     0.2017 ev

!    total energy              =    -279.15002251 Ry
     estimated scf accuracy    <          3.4E-12 Ry
     smearing contrib. (-TS)   =       0.00000000 Ry
     internal energy E=F+TS    =    -279.15002251 Ry

     The total energy is F=E-TS. E is the sum of the following terms:
     one-electron contribution =    -174.62854316 Ry
     hartree contribution      =      93.57675350 Ry
     xc contribution           =     -39.52848670 Ry
     ewald contribution        =     -89.19328786 Ry
     one-center paw contrib.   =     -69.37645829 Ry

     convergence has been achieved in  10 iterations

     Forces acting on atoms (cartesian axes, Ry/au):

     atom    1 type  1   force =     0.00000000    0.00000000    0.00000000
     atom    2 type  1   force =     0.00000000    0.00000000    0.00000000
     atom    3 type  3   force =     0.00000000    0.00000000    0.00000000
     atom    4 type  3   force =     0.00000000    0.00000000    0.00000000
     atom    5 type  2   force =     0.00010021   -0.00002090   -0.00004662
     atom    6 type  2   force =    -0.00002090   -0.00010021   -0.00004662
     atom    7 type  2   force =    -0.00002090   -0.00010021    0.00004662
     atom    8 type  2   force =     0.00010021   -0.00002090    0.00004662
     atom    9 type  2   force =    -0.00010021    0.00002090   -0.00004662
     atom   10 type  2   force =    -0.00010021    0.00002090    0.00004662
     atom   11 type  2   force =     0.00002090    0.00010021    0.00004662
     atom   12 type  2   force =     0.00002090    0.00010021   -0.00004662

     Total force =     0.000318     Total SCF correction =     0.000000

     Computing stress (Cartesian axis) and pressure

          total   stress  (Ry/bohr**3)                   (kbar)     P=       -0.11
  -0.00000120  -0.00000000  -0.00000000           -0.18       -0.00       -0.00
   0.00000000  -0.00000120  -0.00000000            0.00       -0.18       -0.00
  -0.00000000  -0.00000000   0.00000021           -0.00       -0.00        0.03

     General routines

     Parallel routines

   This run was terminated on:  12:27:56  31Oct2023

   JOB DONE.
Job execution finished at: Tue Oct 31 12:27:56 IST 2023