     Program PWSCF v.7.1 starts on 27Nov2023 at 17:21:20

     Reading input from kh.in

     Current dimensions of program PWSCF are:
     Max number of different atomic species (ntypx) = 10
     Max number of k-points (npk) =  40000
     Max angular momentum in pseudopotentials (lmaxx) =  4
     Message from routine volume:
     axis vectors are left-handed
     file K.pbe-spn-kjpaw_psl.1.0.0.UPF: wavefunction(s)  3S renormalized

     IMPORTANT: XC functional enforced from input :
     Exchange-correlation= PBE
                           (   1   4   3   4   0   0   0)
     Any further DFT definition will be discarded
     Please, verify this is what you really want

     Message from routine setup:
     using ibrav=0 with symmetry is DISCOURAGED, use correct ibrav instead

     K-points division:     npool     =       8
     R & G space division:  proc/nbgrp/npool/nimage =      18
     Subspace diagonalization in iterative solution of the eigenvalue problem:
     a serial algorithm will be used

     Using Slab Decomposition

     bravais-lattice index     =            0
     lattice parameter (alat)  =      10.7195  a.u.
     unit-cell volume          =     307.9358 (a.u.)^3
     number of atoms/cell      =            2
     number of atomic types    =            2
     number of electrons       =        10.00
     number of Kohn-Sham states=            9
     kinetic-energy cutoff     =      75.0000  Ry
     charge density cutoff     =     375.0000  Ry
     scf convergence threshold =      1.0E-08
     mixing beta               =       0.7000
     number of iterations used =            8  plain     mixing
     energy convergence thresh.=      1.0E-04
     force convergence thresh. =      1.0E-03
     press convergence thresh. =      5.0E-01
     Exchange-correlation= PBE
                           (   1   4   3   4   0   0   0)
     nstep                     =           50

     celldm(1)=  10.719471  celldm(2)=   0.000000  celldm(3)=   0.000000
     celldm(4)=   0.000000  celldm(5)=   0.000000  celldm(6)=   0.000000

     crystal axes: (cart. coord. in units of alat)
               a(1) = (   0.500000   0.500000   0.000000 )
               a(2) = (   0.500000   0.000000   0.500000 )
               a(3) = (   0.000000   0.500000   0.500000 )

     reciprocal axes: (cart. coord. in units 2 pi/alat)
               b(1) = (  1.000000  1.000000 -1.000000 )
               b(2) = (  1.000000 -1.000000  1.000000 )
               b(3) = ( -1.000000  1.000000  1.000000 )

     PseudoPot. # 1 for K  read from file:
     /home/garima.iitr/.cache/.es/compmat/kh/K.pbe-spn-kjpaw_psl.1.0.0.UPF
     MD5 check sum: 34cc42130a09071ebe376fd42eb21491
     Pseudo is Projector augmented-wave + core cor, Zval =  9.0
     Generated using &quot;atomic&quot; code by A. Dal Corso  v.6.2.2
     Shape of augmentation charge: PSQ
     Using radial grid of 1165 points,  6 beta functions with:
                l(1) =   0
                l(2) =   0
                l(3) =   1
                l(4) =   1
                l(5) =   2
                l(6) =   2
     Q(r) pseudized with 0 coefficients

     PseudoPot. # 2 for H  read from file:
     /home/garima.iitr/.cache/.es/compmat/kh/H.pbe-rrkjus_psl.1.0.0.UPF
     MD5 check sum: 3f4114867bd07edc7f1424d066fc1888
     Pseudo is Ultrasoft, Zval =  1.0
     Generated using &quot;atomic&quot; code by A. Dal Corso  v.6.3MaX
     Using radial grid of  929 points,  2 beta functions with:
                l(1) =   0
                l(2) =   0
     Q(r) pseudized with 0 coefficients

     atomic species   valence    mass     pseudopotential
        K              9.00    39.09830     K ( 1.00)
        H              1.00     1.00750     H ( 1.00)

     48 Sym. Ops., with inversion, found

   Cartesian axes

     site n.     atom                  positions (alat units)
         1           K   tau(   1) = (   0.0000000   0.0000000   0.0000000  )
         2           H   tau(   2) = (   0.5000000   0.5000000   0.5000000  )

     number of k points=    16  Marzari-Vanderbilt smearing, width (Ry)=  0.0050
                       cart. coord. in units 2pi/alat
        k(    1) = (   0.0000000   0.0000000   0.0000000), wk =   0.0092593
        k(    2) = (  -0.1666667   0.1666667   0.1666667), wk =   0.0740741
        k(    3) = (  -0.3333333   0.3333333   0.3333333), wk =   0.0740741
        k(    4) = (   0.5000000  -0.5000000  -0.5000000), wk =   0.0370370
        k(    5) = (   0.0000000   0.0000000   0.3333333), wk =   0.0555556
        k(    6) = (  -0.1666667   0.1666667   0.5000000), wk =   0.2222222
        k(    7) = (   0.6666667  -0.6666667  -0.3333333), wk =   0.2222222
        k(    8) = (   0.5000000  -0.5000000  -0.1666667), wk =   0.2222222
        k(    9) = (   0.3333333  -0.3333333   0.0000000), wk =   0.1111111
        k(   10) = (   0.0000000   0.0000000   0.6666667), wk =   0.0555556
        k(   11) = (   0.8333333  -0.8333333  -0.1666667), wk =   0.2222222
        k(   12) = (   0.6666667  -0.6666667  -0.0000000), wk =   0.1111111
        k(   13) = (   0.0000000   0.0000000  -1.0000000), wk =   0.0277778
        k(   14) = (   1.0000000  -0.6666667  -0.3333333), wk =   0.2222222
        k(   15) = (   0.8333333  -0.5000000  -0.1666667), wk =   0.2222222
        k(   16) = (   0.0000000   0.3333333  -1.0000000), wk =   0.1111111

     Check: negative core charge=   -0.000002

     Initial potential from superposition of free atoms

     starting charge       9.9812, renormalised to      10.0000
     Starting wfcs are    9 randomized atomic wfcs
     Checking if some PAW data can be deallocated...

     Self-consistent Calculation

     iteration #  1     ecut=    75.00 Ry     beta= 0.70
     Davidson diagonalization with overlap
     ethr =  1.00E-02,  avg # of iterations =  7.1

     total energy              =    -114.17715459 Ry
     estimated scf accuracy    <       0.13753466 Ry

[...]

     End of self-consistent calculation

          k = 0.0000 0.0000 0.0000 (  3383 PWs)   bands (ev):

   -27.4897 -10.8409 -10.8409 -10.8409  -0.3690   9.2492   9.2492   9.2492
     9.4676

          k =-0.1667 0.1667 0.1667 (  3383 PWs)   bands (ev):

[...]

     the Fermi energy is     2.2526 ev

!    total energy              =    -114.20719569 Ry
     estimated scf accuracy    <          1.6E-09 Ry
     smearing contrib. (-TS)   =       0.00000000 Ry
     internal energy E=F+TS    =    -114.20719569 Ry

     The total energy is F=E-TS. E is the sum of the following terms:
     one-electron contribution =     -24.88068115 Ry
     hartree contribution      =      14.95572350 Ry
     xc contribution           =     -11.96117629 Ry
     ewald contribution        =     -36.90236819 Ry
     one-center paw contrib.   =     -55.41869356 Ry

     convergence has been achieved in   6 iterations

     Forces acting on atoms (cartesian axes, Ry/au):

     atom    1 type  1   force =    -0.00000000    0.00000000    0.00000000
     atom    2 type  2   force =     0.00000000   -0.00000000   -0.00000000

     Total force =     0.000000     Total SCF correction =     0.000000

     Computing stress (Cartesian axis) and pressure

          total   stress  (Ry/bohr**3)                   (kbar)     P=        1.58
   0.00001071   0.00000000   0.00000000            1.58        0.00        0.00
   0.00000000   0.00001071   0.00000000            0.00        1.58        0.00
   0.00000000   0.00000000   0.00001071            0.00        0.00        1.58

     BFGS Geometry Optimization
     Energy error            =      0.0E+00 Ry
     Gradient error          =      4.1E-33 Ry/Bohr
     Cell gradient error     =      1.6E+00 kbar

     number of scf cycles    =   1
     number of bfgs steps    =   0

     enthalpy           new  =    -114.2071956854 Ry

     new trust radius        =       0.0009397379 bohr
     Message from routine volume:
     axis vectors are left-handed
     new conv_thr            =       0.0000000100 Ry

     new unit-cell volume =    308.18318 a.u.^3 (    45.66804 Ang^3 )
     density =      1.45829 g/cm^3

CELL_PARAMETERS (alat= 10.71947144)
   0.500133880   0.500133880   0.000000000
   0.500133880   0.000000000   0.500133880
   0.000000000   0.500133880   0.500133880

ATOMIC_POSITIONS (crystal)
K            -0.0000000000       -0.0000000000        0.0000000000
H             0.5000000000        0.5000000000        0.5000000000

     Writing config-only to output data dir ./kh.save/
     NEW-OLD atomic charge density approx. for the potential

     Check: negative core charge=   -0.000002
     extrapolated charge   10.00801, renormalised to   10.00000

[...]

     Threshold (ethr) on eigenvalues was too large:
     Diagonalizing with lowered threshold

     Davidson diagonalization with overlap
     ethr =  4.91E-08,  avg # of iterations =  1.3

[...]

     Energy error            =      2.5E-06 Ry
     Gradient error          =      5.8E-32 Ry/Bohr
     Cell gradient error     =      1.5E+00 kbar

[...]

     enthalpy           old  =    -114.2071956854 Ry
     enthalpy           new  =    -114.2071982186 Ry

     CASE: enthalpy          _new < enthalpy          _old

     WARNING: bfgs curvature condition failed, Theta= 0.864
     new trust radius        =       0.0010338500 bohr
     Message from routine volume:
     axis vectors are left-handed
     new conv_thr            =            1.0E-10 Ry

[...]

     Threshold (ethr) on eigenvalues was too large:
     Diagonalizing with lowered threshold

     Davidson diagonalization with overlap
     ethr =  5.86E-08,  avg # of iterations =  1.3

[...]

     Energy error            =      4.1E-06 Ry
     Gradient error          =      6.6E-32 Ry/Bohr
     Cell gradient error     =      8.5E-01 kbar

     number of scf cycles    =   5
     number of bfgs steps    =   4

     enthalpy           old  =    -114.2072041913 Ry
     enthalpy           new  =    -114.2072083325 Ry

     CASE: enthalpy          _new < enthalpy          _old

     new trust radius        =       0.0034916832 bohr
     Message from routine volume:
     axis vectors are left-handed
     new conv_thr            =            1.0E-10 Ry

     new unit-cell volume =    310.40044 a.u.^3 (    45.99660 Ang^3 )
     density =      1.44787 g/cm^3

[...]

ATOMIC_POSITIONS (crystal)
K            -0.0000000000        0.0000000000        0.0000000000
H             0.5000000000        0.5000000000        0.5000000000

     Writing config-only to output data dir ./kh.save/
     NEW-OLD atomic charge density approx. for the potential

     Check: negative core charge=   -0.000002
     extrapolated charge   10.02966, renormalised to   10.00000

[...]

     Energy error            =      4.0E-06 Ry
     Gradient error          =      2.6E-31 Ry/Bohr
     Cell gradient error     =      4.3E-01 kbar
     Message from routine volume:
     axis vectors are left-handed

     bfgs converged in   6 scf cycles and   5 bfgs steps
     (criteria: energy <  1.0E-04 Ry, force <  1.0E-03 Ry/Bohr, cell <  5.0E-01 kbar)

     End of BFGS Geometry Optimization

     Final enthalpy           =    -114.2072123667 Ry

     File ./kh.bfgs deleted, as requested
Begin final coordinates
     new unit-cell volume =    310.40044 a.u.^3 (    45.99660 Ang^3 )
     density =      1.44787 g/cm^3

CELL_PARAMETERS (alat= 10.71947144)
   0.501330435   0.501330435   0.000000000
   0.501330435   0.000000000   0.501330435
   0.000000000   0.501330435   0.501330435

ATOMIC_POSITIONS (crystal)
K            -0.0000000000        0.0000000000        0.0000000000
H             0.5000000000        0.5000000000        0.5000000000
End final coordinates

     Writing config-only to output data dir ./kh.save/

     Final scf calculation at the relaxed structure.
     The G-vectors are recalculated for the final unit cell
     Results may differ from those at the preceding step.

     Using Slab Decomposition

     bravais-lattice index     =            0
     lattice parameter (alat)  =      10.7195  a.u.
     unit-cell volume          =     310.4004 (a.u.)^3
     number of atoms/cell      =            2
     number of atomic types    =            2
     number of electrons       =        10.00
     number of Kohn-Sham states=            9
     kinetic-energy cutoff     =      75.0000  Ry
     charge density cutoff     =     375.0000  Ry
     scf convergence threshold =      1.0E-10
     mixing beta               =       0.7000
     number of iterations used =            8  plain     mixing
     press convergence thresh. =      5.0E-01
     Exchange-correlation= PBE
                           (   1   4   3   4   0   0   0)

     celldm(1)=  10.719471  celldm(2)=   0.000000  celldm(3)=   0.000000
     celldm(4)=   0.000000  celldm(5)=   0.000000  celldm(6)=   0.000000

     crystal axes: (cart. coord. in units of alat)
               a(1) = (   0.501330   0.501330   0.000000 )
               a(2) = (   0.501330   0.000000   0.501330 )
               a(3) = (   0.000000   0.501330   0.501330 )

     reciprocal axes: (cart. coord. in units 2 pi/alat)
               b(1) = (  0.997346  0.997346 -0.997346 )
               b(2) = (  0.997346 -0.997346  0.997346 )
               b(3) = ( -0.997346  0.997346  0.997346 )

     PseudoPot. # 1 for K  read from file:
     /home/garima.iitr/.cache/.es/compmat/kh/K.pbe-spn-kjpaw_psl.1.0.0.UPF
     MD5 check sum: 34cc42130a09071ebe376fd42eb21491
     Pseudo is Projector augmented-wave + core cor, Zval =  9.0
     Generated using &quot;atomic&quot; code by A. Dal Corso  v.6.2.2
     Shape of augmentation charge: PSQ
     Using radial grid of 1165 points,  6 beta functions with:
                l(1) =   0
                l(2) =   0
                l(3) =   1
                l(4) =   1
                l(5) =   2
                l(6) =   2
     Q(r) pseudized with 0 coefficients

     PseudoPot. # 2 for H  read from file:
     /home/garima.iitr/.cache/.es/compmat/kh/H.pbe-rrkjus_psl.1.0.0.UPF
     MD5 check sum: 3f4114867bd07edc7f1424d066fc1888
     Pseudo is Ultrasoft, Zval =  1.0
     Generated using &quot;atomic&quot; code by A. Dal Corso  v.6.3MaX
     Using radial grid of  929 points,  2 beta functions with:
                l(1) =   0
                l(2) =   0
     Q(r) pseudized with 0 coefficients

     atomic species   valence    mass     pseudopotential
        K              9.00    39.09830     K ( 1.00)
        H              1.00     1.00750     H ( 1.00)

     48 Sym. Ops., with inversion, found

   Cartesian axes

     site n.     atom                  positions (alat units)
         1           K   tau(   1) = (  -0.0000000   0.0000000   0.0000000  )
         2           H   tau(   2) = (   0.5013304   0.5013304   0.5013304  )

     number of k points=    16  Marzari-Vanderbilt smearing, width (Ry)=  0.0050
                       cart. coord. in units 2pi/alat
        k(    1) = (   0.0000000   0.0000000   0.0000000), wk =   0.0092593
        k(    2) = (  -0.1662244   0.1662244   0.1662244), wk =   0.0740741
        k(    3) = (  -0.3324487   0.3324487   0.3324487), wk =   0.0740741
        k(    4) = (   0.4986731  -0.4986731  -0.4986731), wk =   0.0370370
        k(    5) = (  -0.0000000   0.0000000   0.3324487), wk =   0.0555556
        k(    6) = (  -0.1662244   0.1662244   0.4986731), wk =   0.2222222
        k(    7) = (   0.6648975  -0.6648975  -0.3324487), wk =   0.2222222
        k(    8) = (   0.4986731  -0.4986731  -0.1662244), wk =   0.2222222
        k(    9) = (   0.3324487  -0.3324487  -0.0000000), wk =   0.1111111
        k(   10) = (  -0.0000000   0.0000000   0.6648975), wk =   0.0555556
        k(   11) = (   0.8311218  -0.8311218  -0.1662244), wk =   0.2222222
        k(   12) = (   0.6648975  -0.6648975  -0.0000000), wk =   0.1111111
        k(   13) = (   0.0000000  -0.0000000  -0.9973462), wk =   0.0277778
        k(   14) = (   0.9973462  -0.6648975  -0.3324487), wk =   0.2222222
        k(   15) = (   0.8311218  -0.4986731  -0.1662244), wk =   0.2222222
        k(   16) = (   0.0000000   0.3324487  -0.9973462), wk =   0.1111111

     Check: negative core charge=   -0.000002

     Initial potential from superposition of free atoms

     starting charge       9.9812, renormalised to      10.0000
     Starting wfcs are    9 randomized atomic wfcs
     Checking if some PAW data can be deallocated...

     Self-consistent Calculation

     iteration #  1     ecut=    75.00 Ry     beta= 0.70
     Davidson diagonalization with overlap
     c_bands:  1 eigenvalues not converged
     c_bands:  1 eigenvalues not converged
     ethr =  1.00E-06,  avg # of iterations = 18.6

[...]

     total energy              =    -114.20721727 Ry
     estimated scf accuracy    <          1.7E-10 Ry

     iteration #  8     ecut=    75.00 Ry     beta= 0.70
     Davidson diagonalization with overlap
     ethr =  1.74E-12,  avg # of iterations =  2.2

     End of self-consistent calculation

[...]

          k =-0.0000 0.0000 0.6649 (  3423 PWs)   bands (ev):

[...]

          k = 0.0000 0.3324-0.9973 (  3390 PWs)   bands (ev):

   -27.5042 -11.1394 -11.0512 -11.0146   1.2850   6.8389   6.8669   8.8769
    11.6243

     the Fermi energy is     2.1719 ev

!    total energy              =    -114.20721727 Ry
     estimated scf accuracy    <          5.5E-12 Ry
     smearing contrib. (-TS)   =       0.00000000 Ry
     internal energy E=F+TS    =    -114.20721727 Ry

     The total energy is F=E-TS. E is the sum of the following terms:
     one-electron contribution =     -25.03886890 Ry
     hartree contribution      =      15.01362983 Ry
     xc contribution           =     -11.95888228 Ry
     ewald contribution        =     -36.80443634 Ry
     one-center paw contrib.   =     -55.41865958 Ry

     convergence has been achieved in   8 iterations

     Forces acting on atoms (cartesian axes, Ry/au):

     atom    1 type  1   force =     0.00000000    0.00000000    0.00000000
     atom    2 type  2   force =    -0.00000000   -0.00000000    0.00000000

     Total force =     0.000000     Total SCF correction =     0.000000

     Computing stress (Cartesian axis) and pressure

          total   stress  (Ry/bohr**3)                   (kbar)     P=        0.43
   0.00000294   0.00000000  -0.00000000            0.43        0.00       -0.00
   0.00000000   0.00000294   0.00000000            0.00        0.43        0.00
  -0.00000000   0.00000000   0.00000294           -0.00        0.00        0.43

     Writing all to output data dir ./kh.save/

     General routines

     Parallel routines

   This run was terminated on:  17:21:26  27Nov2023

   JOB DONE.
Job execution finished at: Mon Nov 27 17:21:27 IST 2023