     Program PWSCF v.7.1 starts on  1Dec2023 at 12:22:19

     Reading input from gah3.in

     Current dimensions of program PWSCF are:
     Max number of different atomic species (ntypx) = 10
     Max number of k-points (npk) =  40000
     Max angular momentum in pseudopotentials (lmaxx) =  4
     file Ga.pbe-dn-kjpaw_psl.1.0.0.UPF: wavefunction(s)  4S renormalized

     IMPORTANT: XC functional enforced from input :
     Exchange-correlation= PBE
                           (   1   4   3   4   0   0   0)
     Any further DFT definition will be discarded
     Please, verify this is what you really want

     Message from routine setup:
     using ibrav=0 with symmetry is DISCOURAGED, use correct ibrav instead

     K-points division:     npool     =       8
     R & G space division:  proc/nbgrp/npool/nimage =      18
     Subspace diagonalization in iterative solution of the eigenvalue problem:
     a serial algorithm will be used

     Using Slab Decomposition

     bravais-lattice index     =            0
     lattice parameter (alat)  =       5.4188  a.u.
     unit-cell volume          =     179.6737 (a.u.)^3
     number of atoms/cell      =            4
     number of atomic types    =            2
     number of electrons       =        16.00
     number of Kohn-Sham states=           12
     kinetic-energy cutoff     =      75.0000  Ry
     charge density cutoff     =     375.0000  Ry
     scf convergence threshold =      1.0E-08
     mixing beta               =       0.7000
     number of iterations used =            8  plain     mixing
     energy convergence thresh.=      1.0E-04
     force convergence thresh. =      1.0E-03
     press convergence thresh. =      5.0E-01
     Exchange-correlation= PBE
                           (   1   4   3   4   0   0   0)
     nstep                     =           50

     celldm(1)=   5.418809  celldm(2)=   0.000000  celldm(3)=   0.000000
     celldm(4)=   0.000000  celldm(5)=   0.000000  celldm(6)=   0.000000

     crystal axes: (cart. coord. in units of alat)
               a(1) = (   1.000000   0.000000   0.000000 )
               a(2) = (   0.000000   1.000000   0.000000 )
               a(3) = (   0.500000   0.500000   1.129206 )

     reciprocal axes: (cart. coord. in units 2 pi/alat)
               b(1) = (  1.000000  0.000000 -0.442789 )
               b(2) = (  0.000000  1.000000 -0.442789 )
               b(3) = (  0.000000  0.000000  0.885578 )

     PseudoPot. # 1 for H  read from file:
     /home/garima.iitr/.cache/.es/compmat/gah3/H.pbe-rrkjus_psl.1.0.0.UPF
     MD5 check sum: 3f4114867bd07edc7f1424d066fc1888
     Pseudo is Ultrasoft, Zval =  1.0
     Generated using &quot;atomic&quot; code by A. Dal Corso  v.6.3MaX
     Using radial grid of  929 points,  2 beta functions with:
                l(1) =   0
                l(2) =   0
     Q(r) pseudized with 0 coefficients

     PseudoPot. # 2 for Ga read from file:
     /home/garima.iitr/.cache/.es/compmat/gah3/Ga.pbe-dn-kjpaw_psl.1.0.0.UPF
     MD5 check sum: 50ce49cbf7e0a40ad8623bf41840a268
     Pseudo is Projector augmented-wave + core cor, Zval = 13.0
     Generated using &quot;atomic&quot; code by A. Dal Corso  v.6.3
     Shape of augmentation charge: PSQ
     Using radial grid of 1205 points,  6 beta functions with:
                l(1) =   0
                l(2) =   0
                l(3) =   1
                l(4) =   1
                l(5) =   2
                l(6) =   2
     Q(r) pseudized with 0 coefficients

     atomic species   valence    mass     pseudopotential
        H              1.00     1.00750     H ( 1.00)
        Ga            13.00    69.72300     Ga( 1.00)

     16 Sym. Ops., with inversion, found

   Cartesian axes

     site n.     atom                  positions (alat units)
         1           Ga  tau(   1) = (   0.0000000   0.0000000   0.0000000  )
         2           H   tau(   2) = (   1.0000000   0.5000000   0.5646028  )
         3           H   tau(   3) = (   0.5000000   1.0000000   0.5646028  )
         4           H   tau(   4) = (   0.5000000   0.5000000   0.0000000  )

     number of k points=    16  Marzari-Vanderbilt smearing, width (Ry)=  0.0050
                       cart. coord. in units 2pi/alat
        k(    1) = (   0.0000000   0.0000000   0.0000000), wk =   0.0370370
        k(    2) = (   0.0000000   0.0000000   0.2951928), wk =   0.0740741
        k(    3) = (   0.0000000   0.3333333  -0.1475964), wk =   0.2962963
        k(    4) = (   0.0000000   0.3333333  -0.4427891), wk =   0.1481481
        k(    5) = (   0.1666667   0.0000000  -0.0737982), wk =   0.0740741
        k(    6) = (   0.1666667   0.0000000   0.2213946), wk =   0.0740741
        k(    7) = (   0.1666667   0.0000000  -0.3689909), wk =   0.0740741
        k(    8) = (   0.1666667   0.3333333  -0.2213946), wk =   0.1481481
        k(    9) = (   0.1666667   0.3333333   0.0737982), wk =   0.1481481
        k(   10) = (   0.1666667   0.3333333  -0.5165873), wk =   0.1481481
        k(   11) = (   0.3333333   0.3333333  -0.2951928), wk =   0.2962963
        k(   12) = (   0.3333333   0.3333333   0.0000000), wk =   0.1481481
        k(   13) = (  -0.5000000   0.0000000   0.2213946), wk =   0.0370370
        k(   14) = (  -0.5000000   0.0000000   0.5165873), wk =   0.0740741
        k(   15) = (  -0.5000000   0.3333333   0.0737982), wk =   0.1481481
        k(   16) = (  -0.5000000   0.3333333  -0.2213946), wk =   0.0740741

     Initial potential from superposition of free atoms

     starting charge      15.9970, renormalised to      16.0000
     Starting wfcs are   12 randomized atomic wfcs
     Checking if some PAW data can be deallocated...

     Self-consistent Calculation

     iteration #  1     ecut=    75.00 Ry     beta= 0.70
     Davidson diagonalization with overlap
     ethr =  1.00E-02,  avg # of iterations =  3.9

     Threshold (ethr) on eigenvalues was too large:
     Diagonalizing with lowered threshold

     Davidson diagonalization with overlap
     ethr =  5.57E-04,  avg # of iterations =  5.4

     total energy              =    -281.18788043 Ry
     estimated scf accuracy    <       0.08534431 Ry

[...]

     End of self-consistent calculation

          k = 0.0000 0.0000 0.0000 (  1985 PWs)   bands (ev):

    -7.4347  -7.3349  -7.1220  -7.1220  -7.0856  -5.1335   7.3880  10.4261
    10.5915  15.3699  16.1603  16.1603

[...]

          k =-0.5000 0.0000 0.2214 (  1954 PWs)   bands (ev):

[...]

     the Fermi energy is     7.3266 ev

!    total energy              =    -281.21444027 Ry
     estimated scf accuracy    <          5.2E-10 Ry
     smearing contrib. (-TS)   =       0.00001447 Ry
     internal energy E=F+TS    =    -281.21445474 Ry

     The total energy is F=E-TS. E is the sum of the following terms:
     one-electron contribution =     -98.85684606 Ry
     hartree contribution      =      64.56334093 Ry
     xc contribution           =     -40.29299777 Ry
     ewald contribution        =     -95.13248060 Ry
     one-center paw contrib.   =    -111.49547124 Ry

     convergence has been achieved in  13 iterations

     Forces acting on atoms (cartesian axes, Ry/au):

     atom    1 type  2   force =     0.00000000    0.00000000    0.00000000
     atom    2 type  1   force =     0.00000000    0.00000000   -0.00000000
     atom    3 type  1   force =     0.00000000    0.00000000   -0.00000000
     atom    4 type  1   force =     0.00000000    0.00000000    0.00000000

     Total force =     0.000000     Total SCF correction =     0.000000

     Computing stress (Cartesian axis) and pressure

          total   stress  (Ry/bohr**3)                   (kbar)     P=       -1.86
  -0.00005043   0.00000000   0.00000000           -7.42        0.00        0.00
   0.00000000  -0.00005043  -0.00000000            0.00       -7.42       -0.00
   0.00000000   0.00000000   0.00006295            0.00        0.00        9.26

     BFGS Geometry Optimization
     Energy error            =      0.0E+00 Ry
     Gradient error          =      1.0E-30 Ry/Bohr
     Cell gradient error     =      9.3E+00 kbar

     number of scf cycles    =   1
     number of bfgs steps    =   0

     enthalpy           new  =    -281.2144402725 Ry

     new trust radius        =       0.0042187110 bohr
     new conv_thr            =       0.0000000100 Ry

     new unit-cell volume =    179.50295 a.u.^3 (    26.59959 Ang^3 )
     density =      4.54130 g/cm^3

CELL_PARAMETERS (alat=  5.41880856)
   0.998739232  -0.000000000   0.000000000
   0.000000000   0.998739232   0.000000000
   0.499369616   0.499369616   1.130982630

ATOMIC_POSITIONS (crystal)
Ga            0.0000000000        0.0000000000        0.0000000000
H             0.7500000000        0.2500000000        0.5000000000
H             0.2500000000        0.7500000000        0.5000000000
H             0.5000000000        0.5000000000        0.0000000000

     Writing config-only to output data dir ./gah3.save/
     NEW-OLD atomic charge density approx. for the potential
     extrapolated charge   15.98478, renormalised to   16.00000

[...]

     Energy error            =      4.9E-05 Ry
     Gradient error          =      1.5E-29 Ry/Bohr
     Cell gradient error     =      1.8E+01 kbar

[...]

     enthalpy           old  =    -281.2144402725 Ry
     enthalpy           new  =    -281.2144895583 Ry

     CASE: enthalpy          _new < enthalpy          _old

     WARNING: bfgs curvature condition failed, Theta= 0.490
     new trust radius        =       0.0011473316 bohr
     new conv_thr            =            1.0E-10 Ry

[...]

     WARNING: bfgs curvature condition failed, Theta= 0.687
     uphill step: resetting bfgs history

[...]

     WARNING: bfgs curvature condition failed, Theta= 0.610
     uphill step: resetting bfgs history

[...]

     WARNING: bfgs curvature condition failed, Theta= 0.987
     new trust radius        =       0.0025151660 bohr
     new conv_thr            =            1.0E-10 Ry

[...]

     number of scf cycles    =  18
     number of bfgs steps    =  17

     enthalpy           old  =    -281.2153932641 Ry
     enthalpy           new  =    -281.2154432053 Ry

     CASE: enthalpy          _new < enthalpy          _old

     new trust radius        =       0.0005121712 bohr
     new conv_thr            =            1.0E-10 Ry

     new unit-cell volume =    180.30811 a.u.^3 (    26.71891 Ang^3 )
     density =      4.52102 g/cm^3

[...]

ATOMIC_POSITIONS (crystal)
Ga            0.0000000000        0.0000000000       -0.0000000000
H             0.7500000000        0.2500000000        0.5000000000
H             0.2500000000        0.7500000000        0.5000000000
H             0.5000000000        0.5000000000        0.0000000000

     Writing config-only to output data dir ./gah3.save/
     NEW-OLD atomic charge density approx. for the potential
     extrapolated charge   16.00465, renormalised to   16.00000

[...]

     Threshold (ethr) on eigenvalues was too large:
     Diagonalizing with lowered threshold

     Davidson diagonalization with overlap
     ethr =  4.26E-08,  avg # of iterations =  4.6

[...]

     Energy error            =      1.3E-07 Ry
     Gradient error          =      1.4E-30 Ry/Bohr
     Cell gradient error     =      2.8E-01 kbar

     bfgs converged in  19 scf cycles and  18 bfgs steps
     (criteria: energy <  1.0E-04 Ry, force <  1.0E-03 Ry/Bohr, cell <  5.0E-01 kbar)

     End of BFGS Geometry Optimization

     Final enthalpy           =    -281.2154433393 Ry

     File ./gah3.bfgs deleted, as requested
Begin final coordinates
     new unit-cell volume =    180.30811 a.u.^3 (    26.71891 Ang^3 )
     density =      4.52102 g/cm^3

CELL_PARAMETERS (alat=  5.41880856)
   0.990258509   0.000000000  -0.000000000
   0.000000000   0.990258509  -0.000000000
   0.495129255   0.495129255   1.155597721

ATOMIC_POSITIONS (crystal)
Ga            0.0000000000        0.0000000000       -0.0000000000
H             0.7500000000        0.2500000000        0.5000000000
H             0.2500000000        0.7500000000        0.5000000000
H             0.5000000000        0.5000000000        0.0000000000
End final coordinates

     Writing config-only to output data dir ./gah3.save/

     Final scf calculation at the relaxed structure.
     The G-vectors are recalculated for the final unit cell
     Results may differ from those at the preceding step.

     Using Slab Decomposition

     bravais-lattice index     =            0
     lattice parameter (alat)  =       5.4188  a.u.
     unit-cell volume          =     180.3081 (a.u.)^3
     number of atoms/cell      =            4
     number of atomic types    =            2
     number of electrons       =        16.00
     number of Kohn-Sham states=           12
     kinetic-energy cutoff     =      75.0000  Ry
     charge density cutoff     =     375.0000  Ry
     scf convergence threshold =      1.0E-10
     mixing beta               =       0.7000
     number of iterations used =            8  plain     mixing
     press convergence thresh. =      5.0E-01
     Exchange-correlation= PBE
                           (   1   4   3   4   0   0   0)

     celldm(1)=   5.418809  celldm(2)=   0.000000  celldm(3)=   0.000000
     celldm(4)=   0.000000  celldm(5)=   0.000000  celldm(6)=   0.000000

     crystal axes: (cart. coord. in units of alat)
               a(1) = (   0.990259   0.000000  -0.000000 )
               a(2) = (   0.000000   0.990259  -0.000000 )
               a(3) = (   0.495129   0.495129   1.155598 )

     reciprocal axes: (cart. coord. in units 2 pi/alat)
               b(1) = (  1.009837 -0.000000 -0.432677 )
               b(2) = ( -0.000000  1.009837 -0.432677 )
               b(3) = (  0.000000  0.000000  0.865353 )

     PseudoPot. # 1 for H  read from file:
     /home/garima.iitr/.cache/.es/compmat/gah3/H.pbe-rrkjus_psl.1.0.0.UPF
     MD5 check sum: 3f4114867bd07edc7f1424d066fc1888
     Pseudo is Ultrasoft, Zval =  1.0
     Generated using &quot;atomic&quot; code by A. Dal Corso  v.6.3MaX
     Using radial grid of  929 points,  2 beta functions with:
                l(1) =   0
                l(2) =   0
     Q(r) pseudized with 0 coefficients

     PseudoPot. # 2 for Ga read from file:
     /home/garima.iitr/.cache/.es/compmat/gah3/Ga.pbe-dn-kjpaw_psl.1.0.0.UPF
     MD5 check sum: 50ce49cbf7e0a40ad8623bf41840a268
     Pseudo is Projector augmented-wave + core cor, Zval = 13.0
     Generated using &quot;atomic&quot; code by A. Dal Corso  v.6.3
     Shape of augmentation charge: PSQ
     Using radial grid of 1205 points,  6 beta functions with:
                l(1) =   0
                l(2) =   0
                l(3) =   1
                l(4) =   1
                l(5) =   2
                l(6) =   2
     Q(r) pseudized with 0 coefficients

     atomic species   valence    mass     pseudopotential
        H              1.00     1.00750     H ( 1.00)
        Ga            13.00    69.72300     Ga( 1.00)

     16 Sym. Ops., with inversion, found

   Cartesian axes

     site n.     atom                  positions (alat units)
         1           Ga  tau(   1) = (  -0.0000000  -0.0000000  -0.0000000  )
         2           H   tau(   2) = (   0.9902585   0.4951293   0.5777989  )
         3           H   tau(   3) = (   0.4951293   0.9902585   0.5777989  )
         4           H   tau(   4) = (   0.4951293   0.4951293  -0.0000000  )

     number of k points=    16  Marzari-Vanderbilt smearing, width (Ry)=  0.0050
                       cart. coord. in units 2pi/alat
        k(    1) = (   0.0000000   0.0000000   0.0000000), wk =   0.0370370
        k(    2) = (   0.0000000   0.0000000   0.2884510), wk =   0.0740741
        k(    3) = (  -0.0000000   0.3366124  -0.1442255), wk =   0.2962963
        k(    4) = (  -0.0000000   0.3366124  -0.4326765), wk =   0.1481481
        k(    5) = (   0.1683062  -0.0000000  -0.0721128), wk =   0.0740741
        k(    6) = (   0.1683062   0.0000000   0.2163383), wk =   0.0740741
        k(    7) = (   0.1683062  -0.0000000  -0.3605638), wk =   0.0740741
        k(    8) = (   0.1683062   0.3366124  -0.2163383), wk =   0.1481481
        k(    9) = (   0.1683062   0.3366124   0.0721128), wk =   0.1481481
        k(   10) = (   0.1683062   0.3366124  -0.5047893), wk =   0.1481481
        k(   11) = (   0.3366124   0.3366124  -0.2884510), wk =   0.2962963
        k(   12) = (   0.3366124   0.3366124  -0.0000000), wk =   0.1481481
        k(   13) = (  -0.5049187   0.0000000   0.2163383), wk =   0.0370370
        k(   14) = (  -0.5049187   0.0000000   0.5047893), wk =   0.0740741
        k(   15) = (  -0.5049187   0.3366124   0.0721128), wk =   0.1481481
        k(   16) = (  -0.5049187   0.3366124  -0.2163383), wk =   0.0740741

     Initial potential from superposition of free atoms

     starting charge      15.9970, renormalised to      16.0000
     Starting wfcs are   12 randomized atomic wfcs
     Checking if some PAW data can be deallocated...

     Self-consistent Calculation

     iteration #  1     ecut=    75.00 Ry     beta= 0.70
     Davidson diagonalization with overlap
     c_bands:  2 eigenvalues not converged
     ethr =  1.00E-06,  avg # of iterations = 40.9

[...]

     total energy              =    -281.21545168 Ry
     estimated scf accuracy    <          3.5E-10 Ry

     iteration # 31     ecut=    75.00 Ry     beta= 0.70
     Davidson diagonalization with overlap
     ethr =  1.19E-12,  avg # of iterations =  1.2

     End of self-consistent calculation

[...]

          k = 0.3366 0.3366-0.0000 (  1960 PWs)   bands (ev):

[...]

          k =-0.5049 0.3366-0.2163 (  1982 PWs)   bands (ev):

    -7.4899  -7.3198  -7.2688  -7.1682  -7.0804   2.0755   2.5592   6.5943
     8.2845  10.2117  10.9739  14.6492

     the Fermi energy is     7.4991 ev

!    total energy              =    -281.21545168 Ry
     estimated scf accuracy    <          4.4E-11 Ry
     smearing contrib. (-TS)   =      -0.00006101 Ry
     internal energy E=F+TS    =    -281.21539066 Ry

     The total energy is F=E-TS. E is the sum of the following terms:
     one-electron contribution =     -99.63422920 Ry
     hartree contribution      =      64.93066826 Ry
     xc contribution           =     -40.29399631 Ry
     ewald contribution        =     -94.71303588 Ry
     one-center paw contrib.   =    -111.50479754 Ry

     convergence has been achieved in  31 iterations

     Forces acting on atoms (cartesian axes, Ry/au):

     atom    1 type  2   force =     0.00000000    0.00000000    0.00000000
     atom    2 type  1   force =    -0.00000000   -0.00000000   -0.00000000
     atom    3 type  1   force =     0.00000000    0.00000000    0.00000000
     atom    4 type  1   force =     0.00000000    0.00000000    0.00000000

     Total force =     0.000000     Total SCF correction =     0.000000

     Computing stress (Cartesian axis) and pressure

          total   stress  (Ry/bohr**3)                   (kbar)     P=        0.30
   0.00000100  -0.00000000  -0.00000000            0.15       -0.00       -0.00
  -0.00000000   0.00000100  -0.00000000           -0.00        0.15       -0.00
  -0.00000000  -0.00000000   0.00000415           -0.00       -0.00        0.61

     Writing all to output data dir ./gah3.save/

     General routines

     Parallel routines

   This run was terminated on:  12:22:49   1Dec2023

   JOB DONE.
Job execution finished at: Fri Dec  1 12:22:49 IST 2023