     Program PWSCF v.6.7MaX starts on 28Nov2023 at 19:37: 2

     Reading input from BH3_sym.in

     Current dimensions of program PWSCF are:
     Max number of different atomic species (ntypx) = 10
     Max number of k-points (npk) =  40000
     Max angular momentum in pseudopotentials (lmaxx) =  3

     IMPORTANT: XC functional enforced from input :
     Exchange-correlation= PBE
                           (   1   4   3   4   0   0   0)
     Any further DFT definition will be discarded
     Please, verify this is what you really want

     Subspace diagonalization in iterative solution of the eigenvalue problem:
     a serial algorithm will be used

     Message from routine setup:
     using ibrav=0 with symmetry is DISCOURAGED, use correct ibrav instead

     bravais-lattice index     =            0
     lattice parameter (alat)  =       8.1081  a.u.
     unit-cell volume          =     992.9145 (a.u.)^3
     number of atoms/cell      =           16
     number of atomic types    =            2
     number of electrons       =        24.00
     number of Kohn-Sham states=           16
     kinetic-energy cutoff     =      75.0000  Ry
     charge density cutoff     =     375.0000  Ry
     scf convergence threshold =      1.0E-08
     mixing beta               =       0.7000
     number of iterations used =            8  plain     mixing
     Exchange-correlation= PBE
                           (   1   4   3   4   0   0   0)

     celldm(1)=   8.108059  celldm(2)=   0.000000  celldm(3)=   0.000000
     celldm(4)=   0.000000  celldm(5)=   0.000000  celldm(6)=   0.000000

     crystal axes: (cart. coord. in units of alat)
               a(1) = (   1.000000   0.000000   0.000000 )
               a(2) = (   0.000000   1.442472   0.000000 )
               a(3) = (  -0.644894   0.000000   1.291379 )

     reciprocal axes: (cart. coord. in units 2 pi/alat)
               b(1) = (  1.000000 -0.000000  0.499384 )
               b(2) = (  0.000000  0.693254 -0.000000 )
               b(3) = (  0.000000  0.000000  0.774366 )

     PseudoPot. # 1 for B  read from file:
     ../../pseudopotentials/b_pbe_v1.4.uspp.F.UPF
     MD5 check sum: cc6de2960df11db49a60e589f9ebb39b
     Pseudo is Ultrasoft + core correction, Zval =  3.0
     Generated by new atomic code, or converted to UPF format
     Using radial grid of  781 points,  4 beta functions with:
                l(1) =   0
                l(2) =   0
                l(3) =   1
                l(4) =   1
     Q(r) pseudized with  8 coefficients,  rinner =    1.100   1.100   1.100

     PseudoPot. # 2 for H  read from file:
     ../../pseudopotentials/H.pbe-rrkjus_psl.1.0.0.UPF
     MD5 check sum: f52b6d4d1c606e5624b1dc7b2218f220
     Pseudo is Ultrasoft, Zval =  1.0
     Generated using "atomic" code by A. Dal Corso  v.5.1
     Using radial grid of  929 points,  2 beta functions with:
                l(1) =   0
                l(2) =   0
     Q(r) pseudized with 0 coefficients

     atomic species   valence    mass     pseudopotential
        B              3.00    10.81350     B ( 1.00)
        H              1.00     1.00750     H ( 1.00)

      4 Sym. Ops., with inversion, found ( 2 have fractional translation)

   Cartesian axes

     site n.     atom                  positions (alat units)
         1           B   tau(   1) = (  -0.2732280   0.7844302   0.8324538  )
         2           B   tau(   2) = (   0.6283342   0.6580415   0.4589256  )
         3           B   tau(   3) = (   0.3058873   0.0631944   1.1046154  )
         4           B   tau(   4) = (   0.0492189   1.3792774   0.1867641  )
         5           H   tau(   5) = (  -0.1123443   0.0068599   0.4008051  )
         6           H   tau(   6) = (   0.4674505   1.4356118   0.8905744  )
         7           H   tau(   7) = (   0.7898974   0.7280958   0.2448847  )
         8           H   tau(   8) = (  -0.4347912   0.7143759   1.0464948  )
         9           H   tau(   9) = (   0.1256089   0.1895213   0.0310581  )
        10           H   tau(  10) = (   0.2294973   1.2529504   1.2603213  )
        11           H   tau(  11) = (   0.5519442   0.9107572   0.6146316  )
        12           H   tau(  12) = (  -0.1968380   0.5317145   0.6767478  )
        13           H   tau(  13) = (  -0.0461572   0.9393059   0.8669348  )
        14           H   tau(  14) = (   0.4012634   0.5031658   0.4244446  )
        15           H   tau(  15) = (   0.0788165   0.2180701   1.0701343  )
        16           H   tau(  16) = (   0.2762897   1.2244016   0.2212451  )

     number of k points=    48  Marzari-Vanderbilt smearing, width (Ry)=  0.0050
                       cart. coord. in units 2pi/alat
        k(    1) = (   0.0000000   0.0000000   0.0000000), wk =   0.0133333
        k(    2) = (   0.0000000   0.0000000   0.1548731), wk =   0.0266667
        k(    3) = (   0.0000000   0.0000000   0.3097463), wk =   0.0266667
        k(    4) = (   0.0000000   0.1386509   0.0000000), wk =   0.0266667
        k(    5) = (   0.0000000   0.1386509   0.1548731), wk =   0.0533333
        k(    6) = (   0.0000000   0.1386509   0.3097463), wk =   0.0533333
        k(    7) = (   0.0000000   0.2773018   0.0000000), wk =   0.0266667
        k(    8) = (   0.0000000   0.2773018   0.1548731), wk =   0.0533333
        k(    9) = (   0.0000000   0.2773018   0.3097463), wk =   0.0533333
        k(   10) = (   0.1666667   0.0000000   0.0832306), wk =   0.0266667
        k(   11) = (   0.1666667   0.0000000   0.2381038), wk =   0.0266667
        k(   12) = (   0.1666667   0.0000000   0.3929769), wk =   0.0266667
        k(   13) = (   0.1666667   0.0000000  -0.2265157), wk =   0.0266667
        k(   14) = (   0.1666667   0.0000000  -0.0716425), wk =   0.0266667
        k(   15) = (   0.1666667   0.1386509   0.0832306), wk =   0.0533333
        k(   16) = (   0.1666667   0.1386509   0.2381038), wk =   0.0533333
        k(   17) = (   0.1666667   0.1386509   0.3929769), wk =   0.0533333
        k(   18) = (   0.1666667   0.1386509  -0.2265157), wk =   0.0533333
        k(   19) = (   0.1666667   0.1386509  -0.0716425), wk =   0.0533333
        k(   20) = (   0.1666667   0.2773018   0.0832306), wk =   0.0533333
        k(   21) = (   0.1666667   0.2773018   0.2381038), wk =   0.0533333
        k(   22) = (   0.1666667   0.2773018   0.3929769), wk =   0.0533333
        k(   23) = (   0.1666667   0.2773018  -0.2265157), wk =   0.0533333
        k(   24) = (   0.1666667   0.2773018  -0.0716425), wk =   0.0533333
        k(   25) = (   0.3333333   0.0000000   0.1664612), wk =   0.0266667
        k(   26) = (   0.3333333   0.0000000   0.3213344), wk =   0.0266667
        k(   27) = (   0.3333333   0.0000000   0.4762075), wk =   0.0266667
        k(   28) = (   0.3333333   0.0000000  -0.1432851), wk =   0.0266667
        k(   29) = (   0.3333333   0.0000000   0.0115881), wk =   0.0266667
        k(   30) = (   0.3333333   0.1386509   0.1664612), wk =   0.0533333
        k(   31) = (   0.3333333   0.1386509   0.3213344), wk =   0.0533333
        k(   32) = (   0.3333333   0.1386509   0.4762075), wk =   0.0533333
        k(   33) = (   0.3333333   0.1386509  -0.1432851), wk =   0.0533333
        k(   34) = (   0.3333333   0.1386509   0.0115881), wk =   0.0533333
        k(   35) = (   0.3333333   0.2773018   0.1664612), wk =   0.0533333
        k(   36) = (   0.3333333   0.2773018   0.3213344), wk =   0.0533333
        k(   37) = (   0.3333333   0.2773018   0.4762075), wk =   0.0533333
        k(   38) = (   0.3333333   0.2773018  -0.1432851), wk =   0.0533333
        k(   39) = (   0.3333333   0.2773018   0.0115881), wk =   0.0533333
        k(   40) = (  -0.5000000   0.0000000  -0.2496918), wk =   0.0133333
        k(   41) = (  -0.5000000   0.0000000  -0.0948187), wk =   0.0266667
        k(   42) = (  -0.5000000   0.0000000   0.0600545), wk =   0.0266667
        k(   43) = (  -0.5000000   0.1386509  -0.2496918), wk =   0.0266667
        k(   44) = (  -0.5000000   0.1386509  -0.0948187), wk =   0.0533333
        k(   45) = (  -0.5000000   0.1386509   0.0600545), wk =   0.0533333
        k(   46) = (  -0.5000000   0.2773018  -0.2496918), wk =   0.0266667
        k(   47) = (  -0.5000000   0.2773018  -0.0948187), wk =   0.0533333
        k(   48) = (  -0.5000000   0.2773018   0.0600545), wk =   0.0533333

     Initial potential from superposition of free atoms

     starting charge   23.99876, renormalised to   24.00000
     Starting wfcs are   28 randomized atomic wfcs

     Self-consistent Calculation

     iteration #  1     ecut=    75.00 Ry     beta= 0.70
     Davidson diagonalization with overlap
     ethr =  1.00E-02,  avg # of iterations =  3.0

     total energy              =     -39.46151782 Ry
     estimated scf accuracy    <       1.11613715 Ry

[...]

     total energy              =     -39.61381021 Ry
     estimated scf accuracy    <       0.00000007 Ry

     iteration #  7     ecut=    75.00 Ry     beta= 0.70
     Davidson diagonalization with overlap
     ethr =  2.92E-10,  avg # of iterations =  2.8

     End of self-consistent calculation

          k = 0.0000 0.0000 0.0000 ( 10845 PWs)   bands (ev):

   -12.6184 -12.1657  -7.1633  -6.9808  -6.3231  -6.1098  -5.3614  -5.0122
    -4.8846  -4.7447  -3.6863  -3.3323   2.0310   3.1241   4.6898   4.8090

[...]

          k = 0.3333 0.2773 0.0116 ( 10902 PWs)   bands (ev):

[...]

          k =-0.5000 0.0000-0.2497 ( 10874 PWs)   bands (ev):

[...]

          k =-0.5000 0.2773 0.0601 ( 10910 PWs)   bands (ev):

   -12.2511 -12.2334  -6.8802  -6.8556  -6.7167  -6.6683  -5.2722  -5.2133
    -4.9014  -4.8486  -3.6538  -3.6249   2.2781   2.3299   4.3955   4.5760

     the Fermi energy is     0.8743 ev

!    total energy              =     -39.61381023 Ry
     estimated scf accuracy    <          1.3E-09 Ry
     smearing contrib. (-TS)   =       0.00000000 Ry
     internal energy E=F+TS    =     -39.61381023 Ry

     The total energy is F=E-TS. E is the sum of the following terms:
     one-electron contribution =     -16.34402359 Ry
     hartree contribution      =      13.57332850 Ry
     xc contribution           =     -20.26299601 Ry
     ewald contribution        =     -16.58011913 Ry

     convergence has been achieved in   7 iterations

     Forces acting on atoms (cartesian axes, Ry/au):

     atom    1 type  1   force =    -0.00131911   -0.00174585   -0.00450797
     atom    2 type  1   force =     0.00131911    0.00174585    0.00450797
     atom    3 type  1   force =     0.00131911   -0.00174585    0.00450797
     atom    4 type  1   force =    -0.00131911    0.00174585   -0.00450797
     atom    5 type  2   force =    -0.00181216    0.00111755    0.00325784
     atom    6 type  2   force =     0.00181216   -0.00111755   -0.00325784
     atom    7 type  2   force =     0.00181216    0.00111755   -0.00325784
     atom    8 type  2   force =    -0.00181216   -0.00111755    0.00325784
     atom    9 type  2   force =     0.00137302    0.00250036    0.00040833
     atom   10 type  2   force =    -0.00137302   -0.00250036   -0.00040833
     atom   11 type  2   force =    -0.00137302    0.00250036   -0.00040833
     atom   12 type  2   force =     0.00137302   -0.00250036    0.00040833
     atom   13 type  2   force =     0.00297907    0.00228803    0.00073820
     atom   14 type  2   force =    -0.00297907   -0.00228803   -0.00073820
     atom   15 type  2   force =    -0.00297907    0.00228803   -0.00073820
     atom   16 type  2   force =     0.00297907   -0.00228803    0.00073820

     Total force =     0.015902     Total SCF correction =     0.000012

     Computing stress (Cartesian axis) and pressure

          total   stress  (Ry/bohr**3)                   (kbar)     P=       13.48
   0.00010198   0.00000000  -0.00001245           15.00        0.00       -1.83
   0.00000000   0.00009418   0.00000000            0.00       13.85        0.00
  -0.00001245   0.00000000   0.00007879           -1.83        0.00       11.59

     Writing output data file ./BH3_experimental.save/

     General routines

     Parallel routines

   This run was terminated on:  19:38:54  28Nov2023

   JOB DONE.