     Program PWSCF v.6.7MaX starts on 28Nov2023 at 19:39:34

     Reading input from GaH3_sym.in

     Current dimensions of program PWSCF are:
     Max number of different atomic species (ntypx) = 10
     Max number of k-points (npk) =  40000
     Max angular momentum in pseudopotentials (lmaxx) =  3
     file Ga.pbe-dn-kjpaw_psl.1.0.0.UPF: wavefunction(s)  4S renormalized

     IMPORTANT: XC functional enforced from input :
     Exchange-correlation= PBE
                           (   1   4   3   4   0   0   0)
     Any further DFT definition will be discarded
     Please, verify this is what you really want

     Subspace diagonalization in iterative solution of the eigenvalue problem:
     a serial algorithm will be used

     Message from routine setup:
     using ibrav=0 with symmetry is DISCOURAGED, use correct ibrav instead

     bravais-lattice index     =            0
     lattice parameter (alat)  =       5.4188  a.u.
     unit-cell volume          =     179.6737 (a.u.)^3
     number of atoms/cell      =            4
     number of atomic types    =            2
     number of electrons       =        16.00
     number of Kohn-Sham states=           12
     kinetic-energy cutoff     =      75.0000  Ry
     charge density cutoff     =     375.0000  Ry
     scf convergence threshold =      1.0E-08
     mixing beta               =       0.7000
     number of iterations used =            8  plain     mixing
     Exchange-correlation= PBE
                           (   1   4   3   4   0   0   0)

     celldm(1)=   5.418809  celldm(2)=   0.000000  celldm(3)=   0.000000
     celldm(4)=   0.000000  celldm(5)=   0.000000  celldm(6)=   0.000000

     crystal axes: (cart. coord. in units of alat)
               a(1) = (   1.000000   0.000000   0.000000 )
               a(2) = (   0.000000   1.000000   0.000000 )
               a(3) = (   0.500000   0.500000   1.129206 )

     reciprocal axes: (cart. coord. in units 2 pi/alat)
               b(1) = (  1.000000  0.000000 -0.442789 )
               b(2) = (  0.000000  1.000000 -0.442789 )
               b(3) = (  0.000000  0.000000  0.885578 )

     PseudoPot. # 1 for H  read from file:
     ../../pseudopotentials/H.pbe-rrkjus_psl.1.0.0.UPF
     MD5 check sum: f52b6d4d1c606e5624b1dc7b2218f220
     Pseudo is Ultrasoft, Zval =  1.0
     Generated using "atomic" code by A. Dal Corso  v.5.1
     Using radial grid of  929 points,  2 beta functions with:
                l(1) =   0
                l(2) =   0
     Q(r) pseudized with 0 coefficients

     PseudoPot. # 2 for Ga read from file:
     ../../pseudopotentials/Ga.pbe-dn-kjpaw_psl.1.0.0.UPF
     MD5 check sum: a27b4342b1af7e5f338de752e9ed7044
     Pseudo is Projector augmented-wave + core cor, Zval = 13.0
     Generated using "atomic" code by A. Dal Corso  v.5.1
     Shape of augmentation charge: PSQ
     Using radial grid of 1205 points,  6 beta functions with:
                l(1) =   0
                l(2) =   0
                l(3) =   1
                l(4) =   1
                l(5) =   2
                l(6) =   2
     Q(r) pseudized with 0 coefficients

     atomic species   valence    mass     pseudopotential
        H              1.00     1.00750     H ( 1.00)
        Ga            13.00    69.72300     Ga( 1.00)

     16 Sym. Ops., with inversion, found

   Cartesian axes

     site n.     atom                  positions (alat units)
         1           Ga  tau(   1) = (   0.0000000   0.0000000   0.0000000  )
         2           H   tau(   2) = (   1.0000000   0.5000000   0.5646028  )
         3           H   tau(   3) = (   0.5000000   1.0000000   0.5646028  )
         4           H   tau(   4) = (   0.5000000   0.5000000   0.0000000  )

     number of k points=    16  Marzari-Vanderbilt smearing, width (Ry)=  0.0050
                       cart. coord. in units 2pi/alat
        k(    1) = (   0.0000000   0.0000000   0.0000000), wk =   0.0370370
        k(    2) = (   0.0000000   0.0000000   0.2951928), wk =   0.0740741
        k(    3) = (   0.0000000   0.3333333  -0.1475964), wk =   0.2962963
        k(    4) = (   0.0000000   0.3333333  -0.4427891), wk =   0.1481481
        k(    5) = (   0.1666667   0.0000000  -0.0737982), wk =   0.0740741
        k(    6) = (   0.1666667   0.0000000   0.2213946), wk =   0.0740741
        k(    7) = (   0.1666667   0.0000000  -0.3689909), wk =   0.0740741
        k(    8) = (   0.1666667   0.3333333  -0.2213946), wk =   0.1481481
        k(    9) = (   0.1666667   0.3333333   0.0737982), wk =   0.1481481
        k(   10) = (   0.1666667   0.3333333  -0.5165873), wk =   0.1481481
        k(   11) = (   0.3333333   0.3333333  -0.2951928), wk =   0.2962963
        k(   12) = (   0.3333333   0.3333333   0.0000000), wk =   0.1481481
        k(   13) = (  -0.5000000   0.0000000   0.2213946), wk =   0.0370370
        k(   14) = (  -0.5000000   0.0000000   0.5165873), wk =   0.0740741
        k(   15) = (  -0.5000000   0.3333333   0.0737982), wk =   0.1481481
        k(   16) = (  -0.5000000   0.3333333  -0.2213946), wk =   0.0740741

     Initial potential from superposition of free atoms

     starting charge   15.99702, renormalised to   16.00000
     Starting wfcs are   12 randomized atomic wfcs
     Checking if some PAW data can be deallocated...

     Self-consistent Calculation

     iteration #  1     ecut=    75.00 Ry     beta= 0.70
     Davidson diagonalization with overlap
     ethr =  1.00E-02,  avg # of iterations =  3.8

     Threshold (ethr) on eigenvalues was too large:
     Diagonalizing with lowered threshold

     Davidson diagonalization with overlap
     ethr =  5.57E-04,  avg # of iterations =  5.0

     total energy              =    -281.18785121 Ry
     estimated scf accuracy    <       0.08518115 Ry

[...]

     total energy              =    -281.21444059 Ry
     estimated scf accuracy    <       0.00000002 Ry

     iteration # 13     ecut=    75.00 Ry     beta= 0.70
     Davidson diagonalization with overlap
     ethr =  1.25E-10,  avg # of iterations =  1.8

     End of self-consistent calculation

          k = 0.0000 0.0000 0.0000 (  1985 PWs)   bands (ev):

    -7.4355  -7.3356  -7.1228  -7.1228  -7.0864  -5.1335   7.3880  10.4261
    10.5915  15.3698  16.1603  16.1603

[...]

          k = 0.3333 0.3333 0.0000 (  1960 PWs)   bands (ev):

[...]

          k =-0.5000 0.0000 0.2214 (  1954 PWs)   bands (ev):

[...]

          k =-0.5000 0.3333-0.2214 (  1964 PWs)   bands (ev):

    -7.4115  -7.2665  -7.2168  -7.1176  -7.0344   2.0493   2.4694   6.6494
     8.2080  10.2591  11.1187  14.7623

     the Fermi energy is     7.3265 ev

!    total energy              =    -281.21444059 Ry
     estimated scf accuracy    <          4.9E-09 Ry
     smearing contrib. (-TS)   =       0.00001447 Ry
     internal energy E=F+TS    =    -281.21445506 Ry

     The total energy is F=E-TS. E is the sum of the following terms:
     one-electron contribution =     -98.85706273 Ry
     hartree contribution      =      64.56360490 Ry
     xc contribution           =     -40.29304277 Ry
     ewald contribution        =     -95.13248060 Ry
     one-center paw contrib.   =    -111.49547386 Ry

     convergence has been achieved in  13 iterations

     Forces acting on atoms (cartesian axes, Ry/au):

     atom    1 type  2   force =     0.00000000    0.00000000    0.00000000
     atom    2 type  1   force =     0.00000000    0.00000000    0.00000000
     atom    3 type  1   force =     0.00000000    0.00000000   -0.00000000
     atom    4 type  1   force =     0.00000000    0.00000000    0.00000000

     Total force =     0.000000     Total SCF correction =     0.000000

     Computing stress (Cartesian axis) and pressure

          total   stress  (Ry/bohr**3)                   (kbar)     P=       -1.97
  -0.00005117   0.00000000   0.00000000           -7.53        0.00        0.00
   0.00000000  -0.00005117   0.00000000            0.00       -7.53        0.00
   0.00000000  -0.00000000   0.00006219            0.00       -0.00        9.15

     Writing output data file ./GaH3_experimental.save/

     General routines

     Parallel routines

   This run was terminated on:  19:39:50  28Nov2023

   JOB DONE.