     Program PWSCF v.6.7MaX starts on 28Nov2023 at 19:42:16

     Reading input from NaBH4_tg_sym.in

     Current dimensions of program PWSCF are:
     Max number of different atomic species (ntypx) = 10
     Max number of k-points (npk) =  40000
     Max angular momentum in pseudopotentials (lmaxx) =  3

     IMPORTANT: XC functional enforced from input :
     Exchange-correlation= PBE
                           (   1   4   3   4   0   0   0)
     Any further DFT definition will be discarded
     Please, verify this is what you really want

     Subspace diagonalization in iterative solution of the eigenvalue problem:
     a serial algorithm will be used

     Message from routine setup:
     using ibrav=0 with symmetry is DISCOURAGED, use correct ibrav instead

     bravais-lattice index     =            0
     lattice parameter (alat)  =       8.1620  a.u.
     unit-cell volume          =     724.7351 (a.u.)^3
     number of atoms/cell      =           12
     number of atomic types    =            3
     number of electrons       =        32.00
     number of Kohn-Sham states=           20
     kinetic-energy cutoff     =      75.0000  Ry
     charge density cutoff     =     375.0000  Ry
     scf convergence threshold =      1.0E-08
     mixing beta               =       0.7000
     number of iterations used =            8  plain     mixing
     Exchange-correlation= PBE
                           (   1   4   3   4   0   0   0)

     celldm(1)=   8.161954  celldm(2)=   0.000000  celldm(3)=   0.000000
     celldm(4)=   0.000000  celldm(5)=   0.000000  celldm(6)=   0.000000

     crystal axes: (cart. coord. in units of alat)
               a(1) = (   1.000000   0.000000   0.000000 )
               a(2) = (   0.000000   1.000000   0.000000 )
               a(3) = (   0.000000   0.000000   1.332898 )

     reciprocal axes: (cart. coord. in units 2 pi/alat)
               b(1) = (  1.000000  0.000000  0.000000 )
               b(2) = (  0.000000  1.000000  0.000000 )
               b(3) = (  0.000000  0.000000  0.750245 )

     PseudoPot. # 1 for H  read from file:
     ../../pseudopotentials/H.pbe-rrkjus_psl.1.0.0.UPF
     MD5 check sum: f52b6d4d1c606e5624b1dc7b2218f220
     Pseudo is Ultrasoft, Zval =  1.0
     Generated using "atomic" code by A. Dal Corso  v.5.1
     Using radial grid of  929 points,  2 beta functions with:
                l(1) =   0
                l(2) =   0
     Q(r) pseudized with 0 coefficients

     PseudoPot. # 2 for B  read from file:
     ../../pseudopotentials/b_pbe_v1.4.uspp.F.UPF
     MD5 check sum: cc6de2960df11db49a60e589f9ebb39b
     Pseudo is Ultrasoft + core correction, Zval =  3.0
     Generated by new atomic code, or converted to UPF format
     Using radial grid of  781 points,  4 beta functions with:
                l(1) =   0
                l(2) =   0
                l(3) =   1
                l(4) =   1
     Q(r) pseudized with  8 coefficients,  rinner =    1.100   1.100   1.100

     PseudoPot. # 3 for Na read from file:
     ../../pseudopotentials/na_pbe_v1.5.uspp.F.UPF
     MD5 check sum: 44600605ef58000f06b90626533354dc
     Pseudo is Ultrasoft, Zval =  9.0
     Generated by new atomic code, or converted to UPF format
     Using radial grid of  819 points,  5 beta functions with:
                l(1) =   0
                l(2) =   0
                l(3) =   1
                l(4) =   1
                l(5) =   2
     Q(r) pseudized with  8 coefficients,  rinner =    1.250   1.250   1.250
                                                       1.250   1.250

     atomic species   valence    mass     pseudopotential
        H              1.00     1.00750     H ( 1.00)
        B              3.00    10.81350     B ( 1.00)
        Na             9.00    22.98900     Na( 1.00)

      8 Sym. Ops. (no inversion) found ( 4 have fractional translation)

   Cartesian axes

     site n.     atom                  positions (alat units)
         1           Na  tau(   1) = (   0.0000000   0.0000000   0.0000000  )
         2           Na  tau(   2) = (   0.5000000   0.5000000   0.6664489  )
         3           B   tau(   3) = (   0.0000000   0.0000000   0.6664489  )
         4           B   tau(   4) = (   0.5000000   0.5000000   0.0000000  )
         5           H   tau(   5) = (   0.0189981   0.7695100   0.5043724  )
         6           H   tau(   6) = (   0.4810019   0.2695100   0.1620766  )
         7           H   tau(   7) = (   0.7304900   0.4810019   1.1708213  )
         8           H   tau(   8) = (   0.7695100   0.9810019   0.8285255  )
         9           H   tau(   9) = (   0.9810019   0.2304900   0.5043724  )
        10           H   tau(  10) = (   0.2304900   0.0189981   0.8285255  )
        11           H   tau(  11) = (   0.5189981   0.7304900   0.1620766  )
        12           H   tau(  12) = (   0.2695100   0.5189981   1.1708213  )

     number of k points=    36  Marzari-Vanderbilt smearing, width (Ry)=  0.0050
                       cart. coord. in units 2pi/alat
        k(    1) = (   0.0000000   0.0000000   0.0000000), wk =   0.0133333
        k(    2) = (   0.0000000   0.0000000   0.1500490), wk =   0.0266667
        k(    3) = (   0.0000000   0.0000000   0.3000980), wk =   0.0266667
        k(    4) = (   0.0000000   0.2000000   0.0000000), wk =   0.0266667
        k(    5) = (   0.0000000   0.2000000   0.1500490), wk =   0.0533333
        k(    6) = (   0.0000000   0.2000000   0.3000980), wk =   0.0533333
        k(    7) = (   0.0000000   0.4000000   0.0000000), wk =   0.0266667
        k(    8) = (   0.0000000   0.4000000   0.1500490), wk =   0.0533333
        k(    9) = (   0.0000000   0.4000000   0.3000980), wk =   0.0533333
        k(   10) = (   0.1666667   0.0000000   0.0000000), wk =   0.0266667
        k(   11) = (   0.1666667   0.0000000   0.1500490), wk =   0.0533333
        k(   12) = (   0.1666667   0.0000000   0.3000980), wk =   0.0533333
        k(   13) = (   0.1666667   0.2000000   0.0000000), wk =   0.0533333
        k(   14) = (   0.1666667   0.2000000   0.1500490), wk =   0.1066667
        k(   15) = (   0.1666667   0.2000000   0.3000980), wk =   0.1066667
        k(   16) = (   0.1666667   0.4000000   0.0000000), wk =   0.0533333
        k(   17) = (   0.1666667   0.4000000   0.1500490), wk =   0.1066667
        k(   18) = (   0.1666667   0.4000000   0.3000980), wk =   0.1066667
        k(   19) = (   0.3333333   0.0000000   0.0000000), wk =   0.0266667
        k(   20) = (   0.3333333   0.0000000   0.1500490), wk =   0.0533333
        k(   21) = (   0.3333333   0.0000000   0.3000980), wk =   0.0533333
        k(   22) = (   0.3333333   0.2000000   0.0000000), wk =   0.0533333
        k(   23) = (   0.3333333   0.2000000   0.1500490), wk =   0.1066667
        k(   24) = (   0.3333333   0.2000000   0.3000980), wk =   0.1066667
        k(   25) = (   0.3333333   0.4000000   0.0000000), wk =   0.0533333
        k(   26) = (   0.3333333   0.4000000   0.1500490), wk =   0.1066667
        k(   27) = (   0.3333333   0.4000000   0.3000980), wk =   0.1066667
        k(   28) = (  -0.5000000   0.0000000   0.0000000), wk =   0.0133333
        k(   29) = (  -0.5000000   0.0000000   0.1500490), wk =   0.0266667
        k(   30) = (  -0.5000000   0.0000000   0.3000980), wk =   0.0266667
        k(   31) = (  -0.5000000   0.2000000   0.0000000), wk =   0.0266667
        k(   32) = (  -0.5000000   0.2000000   0.1500490), wk =   0.0533333
        k(   33) = (  -0.5000000   0.2000000   0.3000980), wk =   0.0533333
        k(   34) = (  -0.5000000   0.4000000   0.0000000), wk =   0.0266667
        k(   35) = (  -0.5000000   0.4000000   0.1500490), wk =   0.0533333
        k(   36) = (  -0.5000000   0.4000000   0.3000980), wk =   0.0533333

     Initial potential from superposition of free atoms

     starting charge   31.98678, renormalised to   32.00000
     Starting wfcs are   26 randomized atomic wfcs

     Self-consistent Calculation

     iteration #  1     ecut=    75.00 Ry     beta= 0.70
     Davidson diagonalization with overlap
     ethr =  1.00E-02,  avg # of iterations =  3.1

     total energy              =    -212.84158922 Ry
     estimated scf accuracy    <       1.11937688 Ry

[...]

     total energy              =    -213.09996724 Ry
     estimated scf accuracy    <       0.00000005 Ry

     iteration #  9     ecut=    75.00 Ry     beta= 0.70
     Davidson diagonalization with overlap
     ethr =  8.35E-11,  avg # of iterations =  2.0

     End of self-consistent calculation

          k = 0.0000 0.0000 0.0000 (  7941 PWs)   bands (ev):

   -50.1587 -50.1582 -22.0820 -22.0820 -22.0776 -22.0766 -22.0766 -22.0658
    -8.0714  -6.7225  -3.2592  -1.9707  -1.9707  -1.4551  -0.9955  -0.9955
     5.5202   5.8578   6.1142   7.9218

[...]

          k = 0.3333 0.4000 0.3001 (  7956 PWs)   bands (ev):

[...]

          k =-0.5000 0.0000 0.0000 (  7966 PWs)   bands (ev):

[...]

          k =-0.5000 0.4000 0.3001 (  7954 PWs)   bands (ev):

   -50.1583 -50.1583 -22.0847 -22.0847 -22.0823 -22.0823 -22.0709 -22.0709
    -6.8096  -6.8096  -2.9137  -2.9137  -2.5423  -2.5423  -1.8259  -1.8259
     6.8095   6.8095   7.3332   7.3332

     the Fermi energy is     0.9588 ev

!    total energy              =    -213.09996724 Ry
     estimated scf accuracy    <          5.1E-09 Ry
     smearing contrib. (-TS)   =       0.00000000 Ry
     internal energy E=F+TS    =    -213.09996724 Ry

     The total energy is F=E-TS. E is the sum of the following terms:
     one-electron contribution =    -166.07901734 Ry
     hartree contribution      =      89.29546917 Ry
     xc contribution           =     -40.54725919 Ry
     ewald contribution        =     -95.76915988 Ry

     convergence has been achieved in   9 iterations

     Forces acting on atoms (cartesian axes, Ry/au):

     atom    1 type  3   force =     0.00000000    0.00000000    0.00000000
     atom    2 type  3   force =     0.00000000    0.00000000    0.00000000
     atom    3 type  2   force =     0.00000000    0.00000000    0.00000000
     atom    4 type  2   force =     0.00000000    0.00000000    0.00000000
     atom    5 type  1   force =    -0.00024418   -0.00261823   -0.00081591
     atom    6 type  1   force =     0.00024418   -0.00261823    0.00081591
     atom    7 type  1   force =     0.00261823    0.00024418   -0.00081591
     atom    8 type  1   force =    -0.00261823    0.00024418    0.00081591
     atom    9 type  1   force =     0.00024418    0.00261823   -0.00081591
     atom   10 type  1   force =     0.00261823   -0.00024418    0.00081591
     atom   11 type  1   force =    -0.00024418    0.00261823    0.00081591
     atom   12 type  1   force =    -0.00261823   -0.00024418   -0.00081591

     Total force =     0.007787     Total SCF correction =     0.000035

     Computing stress (Cartesian axis) and pressure

          total   stress  (Ry/bohr**3)                   (kbar)     P=       12.81
   0.00007761   0.00000000   0.00000000           11.42        0.00        0.00
   0.00000000   0.00007761   0.00000000            0.00       11.42        0.00
   0.00000000   0.00000000   0.00010609            0.00        0.00       15.61

     Writing output data file ./NaBH4_experimental.save/

     General routines

     Parallel routines

   This run was terminated on:  19:44: 0  28Nov2023

   JOB DONE.