     Program PWSCF v.7.1 starts on 31Oct2023 at 19:14:13

     Reading input from alh3.in

     Current dimensions of program PWSCF are:
     Max number of different atomic species (ntypx) = 10
     Max number of k-points (npk) =  40000
     Max angular momentum in pseudopotentials (lmaxx) =  4
     Message from routine volume:
     axis vectors are left-handed
     file Al.pbe-n-kjpaw_psl.1.0.0.UPF: wavefunction(s)  3S 3P renormalized

     IMPORTANT: XC functional enforced from input :
     Exchange-correlation= PBE
                           (   1   4   3   4   0   0   0)
     Any further DFT definition will be discarded
     Please, verify this is what you really want

     Message from routine setup:
     using ibrav=0 with symmetry is DISCOURAGED, use correct ibrav instead

     K-points division:     npool     =       4
     R & G space division:  proc/nbgrp/npool/nimage =      36
     Subspace diagonalization in iterative solution of the eigenvalue problem:
     a serial algorithm will be used

     Using Slab Decomposition

     bravais-lattice index     =            0
     lattice parameter (alat)  =      16.9673  a.u.
     unit-cell volume          =    1221.1724 (a.u.)^3
     number of atoms/cell      =           16
     number of atomic types    =            2
     number of electrons       =        24.00
     number of Kohn-Sham states=           16
     kinetic-energy cutoff     =      75.0000  Ry
     charge density cutoff     =     375.0000  Ry
     scf convergence threshold =      1.0E-08
     mixing beta               =       0.7000
     number of iterations used =            8  plain     mixing
     energy convergence thresh.=      1.0E-04
     force convergence thresh. =      1.0E-03
     press convergence thresh. =      5.0E-01
     Exchange-correlation= PBE
                           (   1   4   3   4   0   0   0)
     nstep                     =           50

     celldm(1)=  16.967284  celldm(2)=   0.000000  celldm(3)=   0.000000
     celldm(4)=   0.000000  celldm(5)=   0.000000  celldm(6)=   0.000000

     crystal axes: (cart. coord. in units of alat)
               a(1) = (   0.500000   0.500000   0.000000 )
               a(2) = (   0.500000   0.000000   0.500000 )
               a(3) = (   0.000000   0.500000   0.500000 )

     reciprocal axes: (cart. coord. in units 2 pi/alat)
               b(1) = (  1.000000  1.000000 -1.000000 )
               b(2) = (  1.000000 -1.000000  1.000000 )
               b(3) = ( -1.000000  1.000000  1.000000 )

     PseudoPot. # 1 for H  read from file:
     /home/garima.iitr/.cache/.es/compmat/naalh4/H.pbe-rrkjus_psl.1.0.0.UPF
     MD5 check sum: 3f4114867bd07edc7f1424d066fc1888
     Pseudo is Ultrasoft, Zval =  1.0
     Generated using &quot;atomic&quot; code by A. Dal Corso  v.6.3MaX
     Using radial grid of  929 points,  2 beta functions with:
                l(1) =   0
                l(2) =   0
     Q(r) pseudized with 0 coefficients

     PseudoPot. # 2 for Al read from file:
     /home/garima.iitr/.cache/.es/compmat/naalh4/Al.pbe-n-kjpaw_psl.1.0.0.UPF
     MD5 check sum: 502b6b27b9c6270cab5dd1084b96fa6d
     Pseudo is Projector augmented-wave + core cor, Zval =  3.0
     Generated using &quot;atomic&quot; code by A. Dal Corso  v.6.3
     Shape of augmentation charge: PSQ
     Using radial grid of 1135 points,  6 beta functions with:
                l(1) =   0
                l(2) =   0
                l(3) =   1
                l(4) =   1
                l(5) =   2
                l(6) =   2
     Q(r) pseudized with 0 coefficients

     atomic species   valence    mass     pseudopotential
        H              1.00     1.00750     H ( 1.00)
        Al             3.00    26.98100     Al( 1.00)

     48 Sym. Ops., with inversion, found (36 have fractional translation)

   Cartesian axes

     site n.     atom                  positions (alat units)
         1           Al  tau(   1) = (   0.0000000   0.0000000   0.0000000  )
         2           Al  tau(   2) = (   0.2500000   0.0000000   0.2500000  )
         3           Al  tau(   3) = (   0.0000000   0.2500000   0.2500000  )
         4           Al  tau(   4) = (   0.2500000   0.2500000   0.0000000  )
         5           H   tau(   5) = (   0.3219678   0.6250000   0.6250000  )
         6           H   tau(   6) = (   0.3750000   0.6780322   0.3750000  )
         7           H   tau(   7) = (   0.9280322   0.6250000   0.6250000  )
         8           H   tau(   8) = (   0.6250000   0.6250000   0.9280322  )
         9           H   tau(   9) = (   0.0719678   0.3750000   0.3750000  )
        10           H   tau(  10) = (   0.6250000   0.3219678   0.6250000  )
        11           H   tau(  11) = (   0.3750000   0.3750000   0.0719678  )
        12           H   tau(  12) = (   0.6780322   0.3750000   0.3750000  )
        13           H   tau(  13) = (   0.3750000   0.3750000   0.6780322  )
        14           H   tau(  14) = (   0.6250000   0.6250000   0.3219678  )
        15           H   tau(  15) = (   0.6250000   0.9280322   0.6250000  )
        16           H   tau(  16) = (   0.3750000   0.0719678   0.3750000  )

     number of k points=    16  Marzari-Vanderbilt smearing, width (Ry)=  0.0050
                       cart. coord. in units 2pi/alat
        k(    1) = (   0.0000000   0.0000000   0.0000000), wk =   0.0092593
        k(    2) = (  -0.1666667   0.1666667   0.1666667), wk =   0.0740741
        k(    3) = (  -0.3333333   0.3333333   0.3333333), wk =   0.0740741
        k(    4) = (   0.5000000  -0.5000000  -0.5000000), wk =   0.0370370
        k(    5) = (   0.0000000   0.0000000   0.3333333), wk =   0.0555556
        k(    6) = (  -0.1666667   0.1666667   0.5000000), wk =   0.2222222
        k(    7) = (   0.6666667  -0.6666667  -0.3333333), wk =   0.2222222
        k(    8) = (   0.5000000  -0.5000000  -0.1666667), wk =   0.2222222
        k(    9) = (   0.3333333  -0.3333333   0.0000000), wk =   0.1111111
        k(   10) = (   0.0000000   0.0000000   0.6666667), wk =   0.0555556
        k(   11) = (   0.8333333  -0.8333333  -0.1666667), wk =   0.2222222
        k(   12) = (   0.6666667  -0.6666667  -0.0000000), wk =   0.1111111
        k(   13) = (   0.0000000   0.0000000  -1.0000000), wk =   0.0277778
        k(   14) = (   1.0000000  -0.6666667  -0.3333333), wk =   0.2222222
        k(   15) = (   0.8333333  -0.5000000  -0.1666667), wk =   0.2222222
        k(   16) = (   0.0000000   0.3333333  -1.0000000), wk =   0.1111111

     Initial potential from superposition of free atoms

     starting charge      23.9907, renormalised to      24.0000
     Starting wfcs are   28 randomized atomic wfcs
     Checking if some PAW data can be deallocated...

     Self-consistent Calculation

     iteration #  1     ecut=    75.00 Ry     beta= 0.70
     Davidson diagonalization with overlap
     ethr =  1.00E-02,  avg # of iterations =  3.9

     total energy              =    -171.98163707 Ry
     estimated scf accuracy    <       0.70159876 Ry

[...]

     End of self-consistent calculation

          k = 0.0000 0.0000 0.0000 ( 13371 PWs)   bands (ev):

    -9.1130  -4.9251  -4.9251  -4.9251  -4.7732  -4.0358  -4.0358  -4.0358
    -3.6492  -3.6492  -0.1606  -0.1606   3.3233   4.7369   4.7369   4.7369

          k =-0.1667 0.1667 0.1667 ( 13443 PWs)   bands (ev):

[...]

     the Fermi energy is     2.2887 ev

!    total energy              =    -172.02282752 Ry
     estimated scf accuracy    <          1.5E-10 Ry
     smearing contrib. (-TS)   =      -0.00000000 Ry
     internal energy E=F+TS    =    -172.02282752 Ry

     The total energy is F=E-TS. E is the sum of the following terms:
     one-electron contribution =      -5.87976288 Ry
     hartree contribution      =       9.80894590 Ry
     xc contribution           =     -19.04190706 Ry
     ewald contribution        =     -18.22747141 Ry
     one-center paw contrib.   =    -138.68263206 Ry

     convergence has been achieved in   9 iterations

     Forces acting on atoms (cartesian axes, Ry/au):

     atom    1 type  2   force =    -0.00000000    0.00000000    0.00000000
     atom    2 type  2   force =     0.00000000   -0.00000000   -0.00000000
     atom    3 type  2   force =    -0.00000000    0.00000000    0.00000000
     atom    4 type  2   force =    -0.00000000   -0.00000000    0.00000000
     atom    5 type  1   force =     0.00000301   -0.00000000   -0.00000000
     atom    6 type  1   force =     0.00000000   -0.00000301    0.00000000
     atom    7 type  1   force =    -0.00000301    0.00000000   -0.00000000
     atom    8 type  1   force =     0.00000000   -0.00000000   -0.00000301
     atom    9 type  1   force =     0.00000301   -0.00000000    0.00000000
     atom   10 type  1   force =     0.00000000    0.00000301    0.00000000
     atom   11 type  1   force =     0.00000000    0.00000000    0.00000301
     atom   12 type  1   force =    -0.00000301   -0.00000000   -0.00000000
     atom   13 type  1   force =     0.00000000    0.00000000   -0.00000301
     atom   14 type  1   force =     0.00000000    0.00000000    0.00000301
     atom   15 type  1   force =     0.00000000   -0.00000301    0.00000000
     atom   16 type  1   force =     0.00000000    0.00000301    0.00000000

     Total force =     0.000010     Total SCF correction =     0.000004
     SCF correction compared to forces is large: reduce conv_thr to get better values

     Computing stress (Cartesian axis) and pressure

          total   stress  (Ry/bohr**3)                   (kbar)     P=       11.75
   0.00007987  -0.00000000  -0.00000000           11.75       -0.00       -0.00
   0.00000000   0.00007987  -0.00000000            0.00       11.75       -0.00
  -0.00000000  -0.00000000   0.00007987           -0.00       -0.00       11.75

     BFGS Geometry Optimization
     Energy error            =      0.0E+00 Ry
     Gradient error          =      3.0E-06 Ry/Bohr
     Cell gradient error     =      1.2E+01 kbar

     number of scf cycles    =   1
     number of bfgs steps    =   0

     enthalpy           new  =    -172.0228275154 Ry

     new trust radius        =       0.0139557749 bohr
     Message from routine volume:
     axis vectors are left-handed
     new conv_thr            =       0.0000000100 Ry

     new unit-cell volume =   1228.50238 a.u.^3 (   182.04527 Ang^3 )
     density =      1.09472 g/cm^3

CELL_PARAMETERS (alat= 16.96728396)
   0.500998402   0.500998402  -0.000000000
   0.500998402  -0.000000000   0.500998402
  -0.000000000   0.500998402   0.500998402

ATOMIC_POSITIONS (crystal)
Al            0.0000000000       -0.0000000000        0.0000000000
Al            0.0000000000        0.5000000000        0.0000000000
Al            0.0000000000        0.0000000000        0.5000000000
Al            0.5000000000       -0.0000000000       -0.0000000000
H             0.3219679709        0.3219679709        0.9280320291
H             0.6780320291        0.0719679709        0.6780320291
H             0.9280320291        0.9280320291        0.3219679709
H             0.3219679709        0.9280320291        0.9280320291
H             0.0719679709        0.0719679709        0.6780320291
H             0.3219679709        0.9280320291        0.3219679709
H             0.6780320291        0.0719679709        0.0719679709
H             0.6780320291        0.6780320291        0.0719679709
H             0.0719679709        0.6780320291        0.6780320291
H             0.9280320291        0.3219679709        0.3219679709
H             0.9280320291        0.3219679709        0.9280320291
H             0.0719679709        0.6780320291        0.0719679709

     Writing config-only to output data dir temp/alh3.save/
     NEW-OLD atomic charge density approx. for the potential
     extrapolated charge   24.14314, renormalised to   24.00000

[...]

     Total force =     0.002316     Total SCF correction =     0.000025

[...]

     Energy error            =      5.0E-04 Ry
     Gradient error          =      6.7E-04 Ry/Bohr
     Cell gradient error     =      8.4E+00 kbar

[...]

     enthalpy           old  =    -172.0228275154 Ry
     enthalpy           new  =    -172.0233295383 Ry

     CASE: enthalpy          _new < enthalpy          _old

[...]

     Threshold (ethr) on eigenvalues was too large:
     Diagonalizing with lowered threshold

     Davidson diagonalization with overlap
     ethr =  9.61E-08,  avg # of iterations =  1.2

[...]

     Energy error            =      6.9E-05 Ry
     Gradient error          =      3.5E-04 Ry/Bohr
     Cell gradient error     =      1.4E+00 kbar

     number of scf cycles    =   8
     number of bfgs steps    =   7

     enthalpy           old  =    -172.0243564729 Ry
     enthalpy           new  =    -172.0244255454 Ry

     CASE: enthalpy          _new < enthalpy          _old

     new trust radius        =       0.0036894460 bohr
     Message from routine volume:
     axis vectors are left-handed
     new conv_thr            =            1.0E-10 Ry

     new unit-cell volume =   1263.61147 a.u.^3 (   187.24790 Ang^3 )
     density =      1.06430 g/cm^3

[...]

ATOMIC_POSITIONS (crystal)
Al            0.0000000000       -0.0000000000        0.0000000000
Al            0.0000000000        0.5000000000        0.0000000000
Al            0.0000000000        0.0000000000        0.5000000000
Al            0.5000000000       -0.0000000000       -0.0000000000
H             0.3196193861        0.3196193861        0.9303806139
H             0.6803806139        0.0696193861        0.6803806139
H             0.9303806139        0.9303806139        0.3196193861
H             0.3196193861        0.9303806139        0.9303806139
H             0.0696193861        0.0696193861        0.6803806139
H             0.3196193861        0.9303806139        0.3196193861
H             0.6803806139        0.0696193861        0.0696193861
H             0.6803806139        0.6803806139        0.0696193861
H             0.0696193861        0.6803806139        0.6803806139
H             0.9303806139        0.3196193861        0.3196193861
H             0.9303806139        0.3196193861        0.9303806139
H             0.0696193861        0.6803806139        0.0696193861

     Writing config-only to output data dir temp/alh3.save/
     NEW-OLD atomic charge density approx. for the potential
     extrapolated charge   23.96264, renormalised to   24.00000

[...]

     Threshold (ethr) on eigenvalues was too large:
     Diagonalizing with lowered threshold

     Davidson diagonalization with overlap
     ethr =  5.44E-08,  avg # of iterations =  2.0

[...]

     Energy error            =      1.6E-05 Ry
     Gradient error          =      1.9E-05 Ry/Bohr
     Cell gradient error     =      3.5E-01 kbar
     Message from routine volume:
     axis vectors are left-handed

     bfgs converged in   9 scf cycles and   8 bfgs steps
     (criteria: energy <  1.0E-04 Ry, force <  1.0E-03 Ry/Bohr, cell <  5.0E-01 kbar)

     End of BFGS Geometry Optimization

     Final enthalpy           =    -172.0244412239 Ry

     File temp/alh3.bfgs deleted, as requested
Begin final coordinates
     new unit-cell volume =   1263.61147 a.u.^3 (   187.24790 Ang^3 )
     density =      1.06430 g/cm^3

CELL_PARAMETERS (alat= 16.96728396)
   0.505726285   0.505726285  -0.000000000
   0.505726285  -0.000000000   0.505726285
  -0.000000000   0.505726285   0.505726285

ATOMIC_POSITIONS (crystal)
Al            0.0000000000       -0.0000000000        0.0000000000
Al            0.0000000000        0.5000000000        0.0000000000
Al            0.0000000000        0.0000000000        0.5000000000
Al            0.5000000000       -0.0000000000       -0.0000000000
H             0.3196193861        0.3196193861        0.9303806139
H             0.6803806139        0.0696193861        0.6803806139
H             0.9303806139        0.9303806139        0.3196193861
H             0.3196193861        0.9303806139        0.9303806139
H             0.0696193861        0.0696193861        0.6803806139
H             0.3196193861        0.9303806139        0.3196193861
H             0.6803806139        0.0696193861        0.0696193861
H             0.6803806139        0.6803806139        0.0696193861
H             0.0696193861        0.6803806139        0.6803806139
H             0.9303806139        0.3196193861        0.3196193861
H             0.9303806139        0.3196193861        0.9303806139
H             0.0696193861        0.6803806139        0.0696193861
End final coordinates

     Writing config-only to output data dir temp/alh3.save/

     Final scf calculation at the relaxed structure.
     The G-vectors are recalculated for the final unit cell
     Results may differ from those at the preceding step.

     Using Slab Decomposition

     bravais-lattice index     =            0
     lattice parameter (alat)  =      16.9673  a.u.
     unit-cell volume          =    1263.6115 (a.u.)^3
     number of atoms/cell      =           16
     number of atomic types    =            2
     number of electrons       =        24.00
     number of Kohn-Sham states=           16
     kinetic-energy cutoff     =      75.0000  Ry
     charge density cutoff     =     375.0000  Ry
     scf convergence threshold =      1.0E-10
     mixing beta               =       0.7000
     number of iterations used =            8  plain     mixing
     press convergence thresh. =      5.0E-01
     Exchange-correlation= PBE
                           (   1   4   3   4   0   0   0)

     celldm(1)=  16.967284  celldm(2)=   0.000000  celldm(3)=   0.000000
     celldm(4)=   0.000000  celldm(5)=   0.000000  celldm(6)=   0.000000

     crystal axes: (cart. coord. in units of alat)
               a(1) = (   0.505726   0.505726  -0.000000 )
               a(2) = (   0.505726  -0.000000   0.505726 )
               a(3) = (  -0.000000   0.505726   0.505726 )

     reciprocal axes: (cart. coord. in units 2 pi/alat)
               b(1) = (  0.988677  0.988677 -0.988677 )
               b(2) = (  0.988677 -0.988677  0.988677 )
               b(3) = ( -0.988677  0.988677  0.988677 )

     PseudoPot. # 1 for H  read from file:
     /home/garima.iitr/.cache/.es/compmat/naalh4/H.pbe-rrkjus_psl.1.0.0.UPF
     MD5 check sum: 3f4114867bd07edc7f1424d066fc1888
     Pseudo is Ultrasoft, Zval =  1.0
     Generated using &quot;atomic&quot; code by A. Dal Corso  v.6.3MaX
     Using radial grid of  929 points,  2 beta functions with:
                l(1) =   0
                l(2) =   0
     Q(r) pseudized with 0 coefficients

     PseudoPot. # 2 for Al read from file:
     /home/garima.iitr/.cache/.es/compmat/naalh4/Al.pbe-n-kjpaw_psl.1.0.0.UPF
     MD5 check sum: 502b6b27b9c6270cab5dd1084b96fa6d
     Pseudo is Projector augmented-wave + core cor, Zval =  3.0
     Generated using &quot;atomic&quot; code by A. Dal Corso  v.6.3
     Shape of augmentation charge: PSQ
     Using radial grid of 1135 points,  6 beta functions with:
                l(1) =   0
                l(2) =   0
                l(3) =   1
                l(4) =   1
                l(5) =   2
                l(6) =   2
     Q(r) pseudized with 0 coefficients

     atomic species   valence    mass     pseudopotential
        H              1.00     1.00750     H ( 1.00)
        Al             3.00    26.98100     Al( 1.00)

     48 Sym. Ops., with inversion, found (36 have fractional translation)

   Cartesian axes

     site n.     atom                  positions (alat units)
         1           Al  tau(   1) = (   0.0000000   0.0000000   0.0000000  )
         2           Al  tau(   2) = (   0.2528631  -0.0000000   0.2528631  )
         3           Al  tau(   3) = (  -0.0000000   0.2528631   0.2528631  )
         4           Al  tau(   4) = (   0.2528631   0.2528631  -0.0000000  )
         5           H   tau(   5) = (   0.3232798   0.6321579   0.6321579  )
         6           H   tau(   6) = (   0.3792947   0.6881727   0.3792947  )
         7           H   tau(   7) = (   0.9410359   0.6321579   0.6321579  )
         8           H   tau(   8) = (   0.6321579   0.6321579   0.9410359  )
         9           H   tau(   9) = (   0.0704167   0.3792947   0.3792947  )
        10           H   tau(  10) = (   0.6321579   0.3232798   0.6321579  )
        11           H   tau(  11) = (   0.3792947   0.3792947   0.0704167  )
        12           H   tau(  12) = (   0.6881727   0.3792947   0.3792947  )
        13           H   tau(  13) = (   0.3792947   0.3792947   0.6881727  )
        14           H   tau(  14) = (   0.6321579   0.6321579   0.3232798  )
        15           H   tau(  15) = (   0.6321579   0.9410359   0.6321579  )
        16           H   tau(  16) = (   0.3792947   0.0704167   0.3792947  )

     number of k points=    16  Marzari-Vanderbilt smearing, width (Ry)=  0.0050
                       cart. coord. in units 2pi/alat
        k(    1) = (   0.0000000   0.0000000   0.0000000), wk =   0.0092593
        k(    2) = (  -0.1647795   0.1647795   0.1647795), wk =   0.0740741
        k(    3) = (  -0.3295590   0.3295590   0.3295590), wk =   0.0740741
        k(    4) = (   0.4943386  -0.4943386  -0.4943386), wk =   0.0370370
        k(    5) = (   0.0000000   0.0000000   0.3295590), wk =   0.0555556
        k(    6) = (  -0.1647795   0.1647795   0.4943386), wk =   0.2222222
        k(    7) = (   0.6591181  -0.6591181  -0.3295590), wk =   0.2222222
        k(    8) = (   0.4943386  -0.4943386  -0.1647795), wk =   0.2222222
        k(    9) = (   0.3295590  -0.3295590   0.0000000), wk =   0.1111111
        k(   10) = (   0.0000000   0.0000000   0.6591181), wk =   0.0555556
        k(   11) = (   0.8238976  -0.8238976  -0.1647795), wk =   0.2222222
        k(   12) = (   0.6591181  -0.6591181   0.0000000), wk =   0.1111111
        k(   13) = (   0.0000000   0.0000000  -0.9886771), wk =   0.0277778
        k(   14) = (   0.9886771  -0.6591181  -0.3295590), wk =   0.2222222
        k(   15) = (   0.8238976  -0.4943386  -0.1647795), wk =   0.2222222
        k(   16) = (   0.0000000   0.3295590  -0.9886771), wk =   0.1111111

     Initial potential from superposition of free atoms

     starting charge      23.9907, renormalised to      24.0000
     Starting wfcs are   28 randomized atomic wfcs
     Checking if some PAW data can be deallocated...

     Self-consistent Calculation

     iteration #  1     ecut=    75.00 Ry     beta= 0.70
     Davidson diagonalization with overlap
     c_bands:  2 eigenvalues not converged
     c_bands:  2 eigenvalues not converged
     c_bands:  1 eigenvalues not converged
     ethr =  1.00E-06,  avg # of iterations = 19.9

[...]

     iteration #  4     ecut=    75.00 Ry     beta= 0.70
     Davidson diagonalization with overlap
     c_bands:  1 eigenvalues not converged
     ethr =  1.99E-06,  avg # of iterations =  9.0

[...]

     total energy              =    -172.02444776 Ry
     estimated scf accuracy    <       0.00000002 Ry

     iteration #  8     ecut=    75.00 Ry     beta= 0.70
     Davidson diagonalization with overlap
     ethr =  6.85E-11,  avg # of iterations =  2.0

     End of self-consistent calculation

[...]

          k =-0.1648 0.1648 0.4943 ( 13857 PWs)   bands (ev):

[...]

          k = 0.0000 0.3296-0.9887 ( 13854 PWs)   bands (ev):

    -7.9362  -7.9362  -6.0297  -6.0297  -3.9061  -3.9061  -3.0097  -3.0097
    -2.1770  -2.1770  -1.4838  -1.4838   2.9538   2.9538   4.9660   4.9660

     the Fermi energy is     2.1581 ev

!    total energy              =    -172.02444777 Ry
     estimated scf accuracy    <          8.5E-11 Ry
     smearing contrib. (-TS)   =      -0.00000000 Ry
     internal energy E=F+TS    =    -172.02444777 Ry

     The total energy is F=E-TS. E is the sum of the following terms:
     one-electron contribution =      -6.69787455 Ry
     hartree contribution      =      10.04837859 Ry
     xc contribution           =     -18.95823580 Ry
     ewald contribution        =     -17.74460040 Ry
     one-center paw contrib.   =    -138.67211560 Ry

     convergence has been achieved in   8 iterations

     Forces acting on atoms (cartesian axes, Ry/au):

     atom    1 type  2   force =    -0.00000000   -0.00000000    0.00000000
     atom    2 type  2   force =     0.00000000   -0.00000000    0.00000000
     atom    3 type  2   force =    -0.00000000    0.00000000    0.00000000
     atom    4 type  2   force =     0.00000000    0.00000000   -0.00000000
     atom    5 type  1   force =    -0.00001885    0.00000000   -0.00000000
     atom    6 type  1   force =    -0.00000000    0.00001885    0.00000000
     atom    7 type  1   force =     0.00001885    0.00000000   -0.00000000
     atom    8 type  1   force =    -0.00000000    0.00000000    0.00001885
     atom    9 type  1   force =    -0.00001885    0.00000000    0.00000000
     atom   10 type  1   force =     0.00000000   -0.00001885   -0.00000000
     atom   11 type  1   force =     0.00000000   -0.00000000   -0.00001885
     atom   12 type  1   force =     0.00001885    0.00000000   -0.00000000
     atom   13 type  1   force =     0.00000000    0.00000000    0.00001885
     atom   14 type  1   force =     0.00000000    0.00000000   -0.00001885
     atom   15 type  1   force =    -0.00000000    0.00001885    0.00000000
     atom   16 type  1   force =     0.00000000   -0.00001885   -0.00000000

     Total force =     0.000065     Total SCF correction =     0.000003

     Computing stress (Cartesian axis) and pressure

          total   stress  (Ry/bohr**3)                   (kbar)     P=       -0.35
  -0.00000239  -0.00000000  -0.00000000           -0.35       -0.00       -0.00
  -0.00000000  -0.00000239  -0.00000000           -0.00       -0.35       -0.00
  -0.00000000  -0.00000000  -0.00000239           -0.00       -0.00       -0.35

     General routines

     Parallel routines

   This run was terminated on:  19:14:31  31Oct2023

   JOB DONE.
Job execution finished at: Tue Oct 31 19:14:31 IST 2023