     Program PWSCF v.6.7MaX starts on 11Nov2023 at 13:43:30

     Reading input from AlH3_experimental.in

     Current dimensions of program PWSCF are:
     Max number of different atomic species (ntypx) = 10
     Max number of k-points (npk) =  40000
     Max angular momentum in pseudopotentials (lmaxx) =  3
     Message from routine volume:
     axis vectors are left-handed
     file Al.pbe-n-kjpaw_psl.1.0.0.UPF: wavefunction(s)  3S 3P renormalized

     IMPORTANT: XC functional enforced from input :
     Exchange-correlation= PBE
                           (   1   4   3   4   0   0   0)
     Any further DFT definition will be discarded
     Please, verify this is what you really want

     Subspace diagonalization in iterative solution of the eigenvalue problem:
     a serial algorithm will be used

     Message from routine setup:
     using ibrav=0 with symmetry is DISCOURAGED, use correct ibrav instead

     bravais-lattice index     =            0
     lattice parameter (alat)  =      16.9673  a.u.
     unit-cell volume          =    1221.1724 (a.u.)^3
     number of atoms/cell      =           16
     number of atomic types    =            2
     number of electrons       =        24.00
     number of Kohn-Sham states=           16
     kinetic-energy cutoff     =      75.0000  Ry
     charge density cutoff     =     375.0000  Ry
     scf convergence threshold =      1.0E-08
     mixing beta               =       0.7000
     number of iterations used =            8  plain     mixing
     Exchange-correlation= PBE
                           (   1   4   3   4   0   0   0)

     celldm(1)=  16.967284  celldm(2)=   0.000000  celldm(3)=   0.000000
     celldm(4)=   0.000000  celldm(5)=   0.000000  celldm(6)=   0.000000

     crystal axes: (cart. coord. in units of alat)
               a(1) = (   0.500000   0.500000   0.000000 )
               a(2) = (   0.500000   0.000000   0.500000 )
               a(3) = (   0.000000   0.500000   0.500000 )

     reciprocal axes: (cart. coord. in units 2 pi/alat)
               b(1) = (  1.000000  1.000000 -1.000000 )
               b(2) = (  1.000000 -1.000000  1.000000 )
               b(3) = ( -1.000000  1.000000  1.000000 )

     PseudoPot. # 1 for H  read from file:
     ../../pseudopotentials/H.pbe-rrkjus_psl.1.0.0.UPF
     MD5 check sum: f52b6d4d1c606e5624b1dc7b2218f220
     Pseudo is Ultrasoft, Zval =  1.0
     Generated using "atomic" code by A. Dal Corso  v.5.1
     Using radial grid of  929 points,  2 beta functions with:
                l(1) =   0
                l(2) =   0
     Q(r) pseudized with 0 coefficients

     PseudoPot. # 2 for Al read from file:
     ../../pseudopotentials/Al.pbe-n-kjpaw_psl.1.0.0.UPF
     MD5 check sum: cfc449ca30b5f3223ec38ddd88ac046d
     Pseudo is Projector augmented-wave + core cor, Zval =  3.0
     Generated using "atomic" code by A. Dal Corso  v.5.1
     Shape of augmentation charge: PSQ
     Using radial grid of 1135 points,  6 beta functions with:
                l(1) =   0
                l(2) =   0
                l(3) =   1
                l(4) =   1
                l(5) =   2
                l(6) =   2
     Q(r) pseudized with 0 coefficients

     atomic species   valence    mass     pseudopotential
        H              1.00     1.00750     H ( 1.00)
        Al             3.00    26.98100     Al( 1.00)

     48 Sym. Ops., with inversion, found (36 have fractional translation)

   Cartesian axes

     site n.     atom                  positions (alat units)
         1           Al  tau(   1) = (   0.0000000   0.0000000   0.0000000  )
         2           Al  tau(   2) = (   0.2500000   0.0000000   0.2500000  )
         3           Al  tau(   3) = (   0.0000000   0.2500000   0.2500000  )
         4           Al  tau(   4) = (   0.2500000   0.2500000   0.0000000  )
         5           H   tau(   5) = (   0.3199100   0.6250000   0.6250000  )
         6           H   tau(   6) = (   0.3750000   0.6800900   0.3750000  )
         7           H   tau(   7) = (   0.9300900   0.6250000   0.6250000  )
         8           H   tau(   8) = (   0.6250000   0.6250000   0.9300900  )
         9           H   tau(   9) = (   0.0699100   0.3750000   0.3750000  )
        10           H   tau(  10) = (   0.6250000   0.3199100   0.6250000  )
        11           H   tau(  11) = (   0.3750000   0.3750000   0.0699100  )
        12           H   tau(  12) = (   0.6800900   0.3750000   0.3750000  )
        13           H   tau(  13) = (   0.3750000   0.3750000   0.6800900  )
        14           H   tau(  14) = (   0.6250000   0.6250000   0.3199100  )
        15           H   tau(  15) = (   0.6250000   0.9300900   0.6250000  )
        16           H   tau(  16) = (   0.3750000   0.0699100   0.3750000  )

     number of k points=    16  Marzari-Vanderbilt smearing, width (Ry)=  0.0050
                       cart. coord. in units 2pi/alat
        k(    1) = (   0.0000000   0.0000000   0.0000000), wk =   0.0092593
        k(    2) = (  -0.1666667   0.1666667   0.1666667), wk =   0.0740741
        k(    3) = (  -0.3333333   0.3333333   0.3333333), wk =   0.0740741
        k(    4) = (   0.5000000  -0.5000000  -0.5000000), wk =   0.0370370
        k(    5) = (   0.0000000   0.0000000   0.3333333), wk =   0.0555556
        k(    6) = (  -0.1666667   0.1666667   0.5000000), wk =   0.2222222
        k(    7) = (   0.6666667  -0.6666667  -0.3333333), wk =   0.2222222
        k(    8) = (   0.5000000  -0.5000000  -0.1666667), wk =   0.2222222
        k(    9) = (   0.3333333  -0.3333333   0.0000000), wk =   0.1111111
        k(   10) = (   0.0000000   0.0000000   0.6666667), wk =   0.0555556
        k(   11) = (   0.8333333  -0.8333333  -0.1666667), wk =   0.2222222
        k(   12) = (   0.6666667  -0.6666667  -0.0000000), wk =   0.1111111
        k(   13) = (   0.0000000   0.0000000  -1.0000000), wk =   0.0277778
        k(   14) = (   1.0000000  -0.6666667  -0.3333333), wk =   0.2222222
        k(   15) = (   0.8333333  -0.5000000  -0.1666667), wk =   0.2222222
        k(   16) = (   0.0000000   0.3333333  -1.0000000), wk =   0.1111111

     Initial potential from superposition of free atoms

     starting charge   23.99072, renormalised to   24.00000
     Starting wfcs are   28 randomized atomic wfcs
     Checking if some PAW data can be deallocated...

     Self-consistent Calculation

     iteration #  1     ecut=    75.00 Ry     beta= 0.70
     Davidson diagonalization with overlap
     ethr =  1.00E-02,  avg # of iterations =  3.8

     total energy              =    -171.98073647 Ry
     estimated scf accuracy    <       0.71285473 Ry

[...]

     total energy              =    -172.02213042 Ry
     estimated scf accuracy    <       0.00000144 Ry

     iteration #  7     ecut=    75.00 Ry     beta= 0.70
     Davidson diagonalization with overlap
     ethr =  6.00E-09,  avg # of iterations =  3.4

     End of self-consistent calculation

          k = 0.0000 0.0000 0.0000 ( 13371 PWs)   bands (ev):

    -9.1523  -4.9523  -4.9523  -4.9523  -4.8815  -4.0536  -4.0536  -4.0536
    -3.6315  -3.6315  -0.1750  -0.1750   3.3622   4.7931   4.7931   4.7931

          k =-0.1667 0.1667 0.1667 ( 13443 PWs)   bands (ev):

[...]

          k =-0.1667 0.1667 0.5000 ( 13390 PWs)   bands (ev):

[...]

          k = 0.0000 0.3333-1.0000 ( 13402 PWs)   bands (ev):

    -7.9076  -7.9076  -5.9596  -5.9596  -3.8131  -3.8131  -2.8895  -2.8895
    -2.0368  -2.0368  -1.3252  -1.3252   3.2818   3.2818   5.2344   5.2344

     the Fermi energy is     2.0519 ev

!    total energy              =    -172.02213084 Ry
     estimated scf accuracy    <          7.5E-09 Ry
     smearing contrib. (-TS)   =       0.00000000 Ry
     internal energy E=F+TS    =    -172.02213084 Ry

     The total energy is F=E-TS. E is the sum of the following terms:
     one-electron contribution =      -6.29422805 Ry
     hartree contribution      =      10.02005303 Ry
     xc contribution           =     -19.07845834 Ry
     ewald contribution        =     -17.98253087 Ry
     one-center paw contrib.   =    -138.68696661 Ry

     convergence has been achieved in   7 iterations

     Forces acting on atoms (cartesian axes, Ry/au):

     atom    1 type  2   force =     0.00000000    0.00000000    0.00000000
     atom    2 type  2   force =     0.00000000    0.00000000    0.00000000
     atom    3 type  2   force =     0.00000000    0.00000000    0.00000000
     atom    4 type  2   force =     0.00000000    0.00000000   -0.00000000
     atom    5 type  1   force =     0.00329597    0.00000000    0.00000000
     atom    6 type  1   force =    -0.00000000   -0.00329597    0.00000000
     atom    7 type  1   force =    -0.00329597   -0.00000000   -0.00000000
     atom    8 type  1   force =     0.00000000   -0.00000000   -0.00329597
     atom    9 type  1   force =     0.00329597    0.00000000   -0.00000000
     atom   10 type  1   force =     0.00000000    0.00329597    0.00000000
     atom   11 type  1   force =    -0.00000000    0.00000000    0.00329597
     atom   12 type  1   force =    -0.00329597    0.00000000    0.00000000
     atom   13 type  1   force =     0.00000000    0.00000000   -0.00329597
     atom   14 type  1   force =    -0.00000000    0.00000000    0.00329597
     atom   15 type  1   force =     0.00000000   -0.00329597    0.00000000
     atom   16 type  1   force =     0.00000000    0.00329597    0.00000000

     Total force =     0.011418     Total SCF correction =     0.000026

     Computing stress (Cartesian axis) and pressure

          total   stress  (Ry/bohr**3)                   (kbar)     P=       17.44
   0.00011852  -0.00000000   0.00000000           17.44       -0.00        0.00
  -0.00000000   0.00011852   0.00000000           -0.00       17.44        0.00
   0.00000000   0.00000000   0.00011852            0.00        0.00       17.44

     Writing output data file ./AlH3_experimental.save/

     General routines

     Parallel routines

   This run was terminated on:  13:44:43  11Nov2023

   JOB DONE.