     Program PWSCF v.6.7MaX starts on 24Oct2023 at 13: 3:34

     Reading input from Na3AlH6_experimental.in

     Current dimensions of program PWSCF are:
     Max number of different atomic species (ntypx) = 10
     Max number of k-points (npk) =  40000
     Max angular momentum in pseudopotentials (lmaxx) =  3
     file Al.pbe-n-kjpaw_psl.1.0.0.UPF: wavefunction(s)  3S 3P renormalized

     IMPORTANT: XC functional enforced from input :
     Exchange-correlation= PBE
                           (   1   4   3   4   0   0   0)
     Any further DFT definition will be discarded
     Please, verify this is what you really want

     Subspace diagonalization in iterative solution of the eigenvalue problem:
     a serial algorithm will be used

     Message from routine setup:
     using ibrav=0 with symmetry is DISCOURAGED, use correct ibrav instead

     bravais-lattice index     =            0
     lattice parameter (alat)  =      10.0031  a.u.
     unit-cell volume          =    1494.3871 (a.u.)^3
     number of atoms/cell      =           20
     number of atomic types    =            3
     number of electrons       =        72.00
     number of Kohn-Sham states=           43
     kinetic-energy cutoff     =      75.0000  Ry
     charge density cutoff     =     375.0000  Ry
     scf convergence threshold =      1.0E-08
     mixing beta               =       0.7000
     number of iterations used =            8  plain     mixing
     Exchange-correlation= PBE
                           (   1   4   3   4   0   0   0)

     celldm(1)=  10.003076  celldm(2)=   0.000000  celldm(3)=   0.000000
     celldm(4)=   0.000000  celldm(5)=   0.000000  celldm(6)=   0.000000

     crystal axes: (cart. coord. in units of alat)
               a(1) = (   1.000000   0.000000   0.000000 )
               a(2) = (   0.000000   1.037180   0.000000 )
               a(3) = (  -0.999562   0.000000   1.439488 )

     reciprocal axes: (cart. coord. in units 2 pi/alat)
               b(1) = (  1.000000 -0.000000  0.694387 )
               b(2) = (  0.000000  0.964153 -0.000000 )
               b(3) = (  0.000000  0.000000  0.694691 )

     PseudoPot. # 1 for Na read from file:
     ../../pseudopotentials/na_pbe_v1.5.uspp.F.UPF
     MD5 check sum: 44600605ef58000f06b90626533354dc
     Pseudo is Ultrasoft, Zval =  9.0
     Generated by new atomic code, or converted to UPF format
     Using radial grid of  819 points,  5 beta functions with:
                l(1) =   0
                l(2) =   0
                l(3) =   1
                l(4) =   1
                l(5) =   2
     Q(r) pseudized with  8 coefficients,  rinner =    1.250   1.250   1.250
                                                       1.250   1.250

     PseudoPot. # 2 for H  read from file:
     ../../pseudopotentials/H.pbe-rrkjus_psl.1.0.0.UPF
     MD5 check sum: f52b6d4d1c606e5624b1dc7b2218f220
     Pseudo is Ultrasoft, Zval =  1.0
     Generated using "atomic" code by A. Dal Corso  v.5.1
     Using radial grid of  929 points,  2 beta functions with:
                l(1) =   0
                l(2) =   0
     Q(r) pseudized with 0 coefficients

     PseudoPot. # 3 for Al read from file:
     ../../pseudopotentials/Al.pbe-n-kjpaw_psl.1.0.0.UPF
     MD5 check sum: cfc449ca30b5f3223ec38ddd88ac046d
     Pseudo is Projector augmented-wave + core cor, Zval =  3.0
     Generated using "atomic" code by A. Dal Corso  v.5.1
     Shape of augmentation charge: PSQ
     Using radial grid of 1135 points,  6 beta functions with:
                l(1) =   0
                l(2) =   0
                l(3) =   1
                l(4) =   1
                l(5) =   2
                l(6) =   2
     Q(r) pseudized with 0 coefficients

     atomic species   valence    mass     pseudopotential
        Na             9.00    22.98900     Na( 1.00)
        H              1.00     1.00750     H ( 1.00)
        Al             3.00    26.98100     Al( 1.00)

      4 Sym. Ops., with inversion, found ( 2 have fractional translation)

   Cartesian axes

     site n.     atom                  positions (alat units)
         1           Al  tau(   1) = (   0.5000000   0.0000000   0.0000000  )
         2           Al  tau(   2) = (   0.0002188   0.5185901   0.7197441  )
         3           Na  tau(   3) = (  -0.4997812   0.0000000   0.7197441  )
         4           Na  tau(   4) = (   0.0000000   0.5185901   0.0000000  )
         5           Na  tau(   5) = (   0.0112779   0.9881424   0.3547907  )
         6           Na  tau(   6) = (  -0.0108402   0.0490379   1.0846976  )
         7           Na  tau(   7) = (   0.4889410   0.4695522   0.3649535  )
         8           Na  tau(   8) = (  -0.4885033   0.5676280   1.0745348  )
         9           H   tau(   9) = (  -0.1610436   0.7957662   0.8104031  )
        10           H   tau(  10) = (   0.1614812   0.2414141   0.6290852  )
        11           H   tau(  11) = (  -0.3382999   0.2771761   1.3488293  )
        12           H   tau(  12) = (   0.3387376   0.7600042   0.0906590  )
        13           H   tau(  13) = (  -0.2276214   0.8611500   1.3769569  )
        14           H   tau(  14) = (   0.2280590   0.1760302   0.0625314  )
        15           H   tau(  15) = (  -0.2717222   0.3425599   0.7822755  )
        16           H   tau(  16) = (   0.2721598   0.6946204   0.6572128  )
        17           H   tau(  17) = (  -0.5991672   0.9877068   1.1274936  )
        18           H   tau(  18) = (   0.5996049   0.0494735   0.3119947  )
        19           H   tau(  19) = (   0.0998237   0.4691166   1.0317388  )
        20           H   tau(  20) = (  -0.0993860   0.5680636   0.4077495  )

     number of k points=    56  Marzari-Vanderbilt smearing, width (Ry)=  0.0050
                       cart. coord. in units 2pi/alat
        k(    1) = (   0.0000000   0.0000000   0.0000000), wk =   0.0138889
        k(    2) = (   0.0000000   0.0000000   0.1736728), wk =   0.0277778
        k(    3) = (   0.0000000   0.0000000  -0.3473457), wk =   0.0138889
        k(    4) = (   0.0000000   0.1606921   0.0000000), wk =   0.0277778
        k(    5) = (   0.0000000   0.1606921   0.1736728), wk =   0.0555556
        k(    6) = (   0.0000000   0.1606921  -0.3473457), wk =   0.0277778
        k(    7) = (   0.0000000   0.3213842   0.0000000), wk =   0.0277778
        k(    8) = (   0.0000000   0.3213842   0.1736728), wk =   0.0555556
        k(    9) = (   0.0000000   0.3213842  -0.3473457), wk =   0.0277778
        k(   10) = (   0.0000000  -0.4820763   0.0000000), wk =   0.0138889
        k(   11) = (   0.0000000  -0.4820763   0.1736728), wk =   0.0277778
        k(   12) = (   0.0000000  -0.4820763  -0.3473457), wk =   0.0138889
        k(   13) = (   0.1666667   0.0000000   0.1157312), wk =   0.0277778
        k(   14) = (   0.1666667   0.0000000   0.2894040), wk =   0.0277778
        k(   15) = (   0.1666667   0.0000000  -0.2316144), wk =   0.0277778
        k(   16) = (   0.1666667   0.0000000  -0.0579416), wk =   0.0277778
        k(   17) = (   0.1666667   0.1606921   0.1157312), wk =   0.0555556
        k(   18) = (   0.1666667   0.1606921   0.2894040), wk =   0.0555556
        k(   19) = (   0.1666667   0.1606921  -0.2316144), wk =   0.0555556
        k(   20) = (   0.1666667   0.1606921  -0.0579416), wk =   0.0555556
        k(   21) = (   0.1666667   0.3213842   0.1157312), wk =   0.0555556
        k(   22) = (   0.1666667   0.3213842   0.2894040), wk =   0.0555556
        k(   23) = (   0.1666667   0.3213842  -0.2316144), wk =   0.0555556
        k(   24) = (   0.1666667   0.3213842  -0.0579416), wk =   0.0555556
        k(   25) = (   0.1666667  -0.4820763   0.1157312), wk =   0.0277778
        k(   26) = (   0.1666667  -0.4820763   0.2894040), wk =   0.0277778
        k(   27) = (   0.1666667  -0.4820763  -0.2316144), wk =   0.0277778
        k(   28) = (   0.1666667  -0.4820763  -0.0579416), wk =   0.0277778
        k(   29) = (   0.3333333   0.0000000   0.2314624), wk =   0.0277778
        k(   30) = (   0.3333333   0.0000000   0.4051353), wk =   0.0277778
        k(   31) = (   0.3333333   0.0000000  -0.1158832), wk =   0.0277778
        k(   32) = (   0.3333333   0.0000000   0.0577896), wk =   0.0277778
        k(   33) = (   0.3333333   0.1606921   0.2314624), wk =   0.0555556
        k(   34) = (   0.3333333   0.1606921   0.4051353), wk =   0.0555556
        k(   35) = (   0.3333333   0.1606921  -0.1158832), wk =   0.0555556
        k(   36) = (   0.3333333   0.1606921   0.0577896), wk =   0.0555556
        k(   37) = (   0.3333333   0.3213842   0.2314624), wk =   0.0555556
        k(   38) = (   0.3333333   0.3213842   0.4051353), wk =   0.0555556
        k(   39) = (   0.3333333   0.3213842  -0.1158832), wk =   0.0555556
        k(   40) = (   0.3333333   0.3213842   0.0577896), wk =   0.0555556
        k(   41) = (   0.3333333  -0.4820763   0.2314624), wk =   0.0277778
        k(   42) = (   0.3333333  -0.4820763   0.4051353), wk =   0.0277778
        k(   43) = (   0.3333333  -0.4820763  -0.1158832), wk =   0.0277778
        k(   44) = (   0.3333333  -0.4820763   0.0577896), wk =   0.0277778
        k(   45) = (  -0.5000000   0.0000000  -0.3471936), wk =   0.0138889
        k(   46) = (  -0.5000000   0.0000000  -0.1735208), wk =   0.0277778
        k(   47) = (  -0.5000000   0.0000000  -0.6945393), wk =   0.0138889
        k(   48) = (  -0.5000000   0.1606921  -0.3471936), wk =   0.0277778
        k(   49) = (  -0.5000000   0.1606921  -0.1735208), wk =   0.0555556
        k(   50) = (  -0.5000000   0.1606921  -0.6945393), wk =   0.0277778
        k(   51) = (  -0.5000000   0.3213842  -0.3471936), wk =   0.0277778
        k(   52) = (  -0.5000000   0.3213842  -0.1735208), wk =   0.0555556
        k(   53) = (  -0.5000000   0.3213842  -0.6945393), wk =   0.0277778
        k(   54) = (  -0.5000000  -0.4820763  -0.3471936), wk =   0.0138889
        k(   55) = (  -0.5000000  -0.4820763  -0.1735208), wk =   0.0277778
        k(   56) = (  -0.5000000  -0.4820763  -0.6945393), wk =   0.0138889

     Initial potential from superposition of free atoms

     starting charge   71.95756, renormalised to   72.00000
     Starting wfcs are   50 randomized atomic wfcs
     Checking if some PAW data can be deallocated...

     Self-consistent Calculation

     iteration #  1     ecut=    75.00 Ry     beta= 0.70
     Davidson diagonalization with overlap
     ethr =  1.00E-02,  avg # of iterations =  5.6

     total energy              =    -665.23201586 Ry
     estimated scf accuracy    <       0.94133879 Ry

[...]

     total energy              =    -665.33746348 Ry
     estimated scf accuracy    <       0.00000001 Ry

     iteration #  9     ecut=    75.00 Ry     beta= 0.70
     Davidson diagonalization with overlap
     ethr =  1.98E-11,  avg # of iterations =  3.1

     End of self-consistent calculation

          k = 0.0000 0.0000 0.0000 ( 16357 PWs)   bands (ev):

   -49.1170 -49.1163 -49.1157 -49.1153 -48.9998 -48.9995 -21.0693 -21.0642
   -21.0605 -21.0546 -21.0519 -21.0512 -21.0486 -21.0474 -21.0365 -21.0324
   -21.0308 -21.0281 -20.9361 -20.9310 -20.9302 -20.9284 -20.9222 -20.9197
    -5.1793  -4.1881  -1.8580  -1.1091  -0.9974  -0.4517  -0.4149  -0.3959
     0.0881   0.8983   1.1950   1.5874   4.5263   5.4549   6.1369   6.8566
     7.0378   7.4231   7.7870

[...]

          k = 0.3333-0.4821 0.0578 ( 16368 PWs)   bands (ev):

[...]

          k =-0.5000 0.0000-0.3472 ( 16388 PWs)   bands (ev):

[...]

          k =-0.5000-0.4821-0.6945 ( 16352 PWs)   bands (ev):

   -49.1162 -49.1162 -49.1158 -49.1158 -48.9998 -48.9998 -21.0733 -21.0733
   -21.0606 -21.0606 -21.0563 -21.0563 -21.0416 -21.0416 -21.0301 -21.0301
   -21.0293 -21.0293 -20.9356 -20.9356 -20.9264 -20.9264 -20.9207 -20.9207
    -4.1941  -4.1941  -1.8625  -1.8625  -1.0107  -1.0107  -0.9725  -0.9725
     0.1509   0.1509   1.2047   1.2047   6.0660   6.0660   7.5125   7.5125
     8.2630   8.2630   8.4829

     the Fermi energy is     3.1935 ev

!    total energy              =    -665.33746349 Ry
     estimated scf accuracy    <          3.1E-09 Ry
     smearing contrib. (-TS)   =       0.00000000 Ry
     internal energy E=F+TS    =    -665.33746349 Ry

     The total energy is F=E-TS. E is the sum of the following terms:
     one-electron contribution =    -481.97996298 Ry
     hartree contribution      =     254.78207388 Ry
     xc contribution           =    -100.22940089 Ry
     ewald contribution        =    -268.57364766 Ry
     one-center paw contrib.   =     -69.33652584 Ry

     convergence has been achieved in   9 iterations

     Forces acting on atoms (cartesian axes, Ry/au):

     atom    1 type  3   force =     0.00000000    0.00000000    0.00000000
     atom    2 type  3   force =     0.00000000    0.00000000    0.00000000
     atom    3 type  1   force =    -0.00000000   -0.00000000    0.00000000
     atom    4 type  1   force =     0.00000000   -0.00000000    0.00000000
     atom    5 type  1   force =    -0.00045263    0.00044515    0.00033173
     atom    6 type  1   force =     0.00045263   -0.00044515   -0.00033173
     atom    7 type  1   force =     0.00045263    0.00044515   -0.00033173
     atom    8 type  1   force =    -0.00045263   -0.00044515    0.00033173
     atom    9 type  2   force =    -0.00090884    0.00190194    0.00069403
     atom   10 type  2   force =     0.00090884   -0.00190194   -0.00069403
     atom   11 type  2   force =     0.00090884    0.00190194   -0.00069403
     atom   12 type  2   force =    -0.00090884   -0.00190194    0.00069403
     atom   13 type  2   force =     0.00194807   -0.00124865   -0.00040326
     atom   14 type  2   force =    -0.00194807    0.00124865    0.00040326
     atom   15 type  2   force =    -0.00194807   -0.00124865    0.00040326
     atom   16 type  2   force =     0.00194807    0.00124865   -0.00040326
     atom   17 type  2   force =    -0.00088327   -0.00008422   -0.00228624
     atom   18 type  2   force =     0.00088327    0.00008422    0.00228624
     atom   19 type  2   force =     0.00088327   -0.00008422    0.00228624
     atom   20 type  2   force =    -0.00088327    0.00008422   -0.00228624

     Total force =     0.008239     Total SCF correction =     0.000022

     Computing stress (Cartesian axis) and pressure

          total   stress  (Ry/bohr**3)                   (kbar)     P=       14.99
   0.00010177   0.00000000   0.00000018           14.97        0.00        0.03
   0.00000000   0.00010084   0.00000000            0.00       14.83        0.00
   0.00000018   0.00000000   0.00010302            0.03        0.00       15.15

     Writing output data file ./Na3AlH6_experimental.save/

     General routines

     Parallel routines

   This run was terminated on:  13:13:15  24Oct2023

   JOB DONE.