     Program PWSCF v.6.7MaX starts on 24Oct2023 at 21:53:33

     Reading input from Na5Al3H14_experimental.in

     Current dimensions of program PWSCF are:
     Max number of different atomic species (ntypx) = 10
     Max number of k-points (npk) =  40000
     Max angular momentum in pseudopotentials (lmaxx) =  3
     file Al.pbe-n-kjpaw_psl.1.0.0.UPF: wavefunction(s)  3S 3P renormalized

     IMPORTANT: XC functional enforced from input :
     Exchange-correlation= PBE
                           (   1   4   3   4   0   0   0)
     Any further DFT definition will be discarded
     Please, verify this is what you really want

     Subspace diagonalization in iterative solution of the eigenvalue problem:
     a serial algorithm will be used

     Message from routine setup:
     using ibrav=0 with symmetry is DISCOURAGED, use correct ibrav instead

     bravais-lattice index     =            0
     lattice parameter (alat)  =      12.6114  a.u.
     unit-cell volume          =    3067.3055 (a.u.)^3
     number of atoms/cell      =           44
     number of atomic types    =            3
     number of electrons       =       136.00
     number of Kohn-Sham states=           82
     kinetic-energy cutoff     =      75.0000  Ry
     charge density cutoff     =     375.0000  Ry
     scf convergence threshold =      1.0E-08
     mixing beta               =       0.7000
     number of iterations used =            8  plain     mixing
     Exchange-correlation= PBE
                           (   1   4   3   4   0   0   0)

     celldm(1)=  12.611352  celldm(2)=   0.000000  celldm(3)=   0.000000
     celldm(4)=   0.000000  celldm(5)=   0.000000  celldm(6)=   0.000000

     crystal axes: (cart. coord. in units of alat)
               a(1) = (   1.000000   0.000000   0.000000 )
               a(2) = (   0.000000   1.000000   0.000000 )
               a(3) = (   0.000000   0.000000   1.529227 )

     reciprocal axes: (cart. coord. in units 2 pi/alat)
               b(1) = (  1.000000  0.000000  0.000000 )
               b(2) = (  0.000000  1.000000  0.000000 )
               b(3) = (  0.000000  0.000000  0.653925 )

     PseudoPot. # 1 for H  read from file:
     ../../pseudopotentials/H.pbe-rrkjus_psl.1.0.0.UPF
     MD5 check sum: f52b6d4d1c606e5624b1dc7b2218f220
     Pseudo is Ultrasoft, Zval =  1.0
     Generated using "atomic" code by A. Dal Corso  v.5.1
     Using radial grid of  929 points,  2 beta functions with:
                l(1) =   0
                l(2) =   0
     Q(r) pseudized with 0 coefficients

     PseudoPot. # 2 for Na read from file:
     ../../pseudopotentials/na_pbe_v1.5.uspp.F.UPF
     MD5 check sum: 44600605ef58000f06b90626533354dc
     Pseudo is Ultrasoft, Zval =  9.0
     Generated by new atomic code, or converted to UPF format
     Using radial grid of  819 points,  5 beta functions with:
                l(1) =   0
                l(2) =   0
                l(3) =   1
                l(4) =   1
                l(5) =   2
     Q(r) pseudized with  8 coefficients,  rinner =    1.250   1.250   1.250
                                                       1.250   1.250

     PseudoPot. # 3 for Al read from file:
     ../../pseudopotentials/Al.pbe-n-kjpaw_psl.1.0.0.UPF
     MD5 check sum: cfc449ca30b5f3223ec38ddd88ac046d
     Pseudo is Projector augmented-wave + core cor, Zval =  3.0
     Generated using "atomic" code by A. Dal Corso  v.5.1
     Shape of augmentation charge: PSQ
     Using radial grid of 1135 points,  6 beta functions with:
                l(1) =   0
                l(2) =   0
                l(3) =   1
                l(4) =   1
                l(5) =   2
                l(6) =   2
     Q(r) pseudized with 0 coefficients

     atomic species   valence    mass     pseudopotential
        H              1.00     1.00750     H ( 1.00)
        Na             9.00    22.98900     Na( 1.00)
        Al             3.00    26.98100     Al( 1.00)

     16 Sym. Ops., with inversion, found ( 8 have fractional translation)

   Cartesian axes

     site n.     atom                  positions (alat units)
         1           Al  tau(   1) = (   0.0000000   0.0000000   0.7646137  )
         2           Al  tau(   2) = (   0.5000000   0.5000000   0.0000000  )
         3           Al  tau(   3) = (   0.0000000   0.5000000   0.0000000  )
         4           Al  tau(   4) = (   0.5000000   0.0000000   0.7646137  )
         5           Al  tau(   5) = (   0.0000000   0.5000000   0.7646137  )
         6           Al  tau(   6) = (   0.5000000   0.0000000   0.0000000  )
         7           Na  tau(   7) = (   0.0000000   0.0000000   0.0000000  )
         8           Na  tau(   8) = (   0.5000000   0.5000000   0.7646137  )
         9           Na  tau(   9) = (   0.7873500   0.2873500   0.3823069  )
        10           Na  tau(  10) = (   0.7126500   0.7873500   0.3823069  )
        11           Na  tau(  11) = (   0.2126500   0.7126500   0.3823069  )
        12           Na  tau(  12) = (   0.7126500   0.7873500   1.1469206  )
        13           Na  tau(  13) = (   0.2126500   0.7126500   1.1469206  )
        14           Na  tau(  14) = (   0.2873500   0.2126500   0.3823069  )
        15           Na  tau(  15) = (   0.2873500   0.2126500   1.1469206  )
        16           Na  tau(  16) = (   0.7873500   0.2873500   1.1469206  )
        17           H   tau(  17) = (   0.0438000   0.3200500   0.1796995  )
        18           H   tau(  18) = (   0.4562000   0.8200500   0.5849142  )
        19           H   tau(  19) = (   0.1799500   0.4562000   0.5849142  )
        20           H   tau(  20) = (   0.4562000   0.8200500   0.9443133  )
        21           H   tau(  21) = (   0.1799500   0.4562000   0.9443133  )
        22           H   tau(  22) = (   0.9562000   0.6799500   0.1796995  )
        23           H   tau(  23) = (   0.3200500   0.9562000   0.1796995  )
        24           H   tau(  24) = (   0.9562000   0.6799500   1.3495280  )
        25           H   tau(  25) = (   0.3200500   0.9562000   1.3495280  )
        26           H   tau(  26) = (   0.6799500   0.0438000   0.1796995  )
        27           H   tau(  27) = (   0.0438000   0.3200500   1.3495280  )
        28           H   tau(  28) = (   0.6799500   0.0438000   1.3495280  )
        29           H   tau(  29) = (   0.5438000   0.1799500   0.5849142  )
        30           H   tau(  30) = (   0.8200500   0.5438000   0.5849142  )
        31           H   tau(  31) = (   0.5438000   0.1799500   0.9443133  )
        32           H   tau(  32) = (   0.8200500   0.5438000   0.9443133  )
        33           H   tau(  33) = (   0.0000000   0.0000000   0.5038652  )
        34           H   tau(  34) = (   0.5000000   0.5000000   0.2607486  )
        35           H   tau(  35) = (   0.5000000   0.5000000   1.2684789  )
        36           H   tau(  36) = (   0.0000000   0.0000000   1.0253623  )
        37           H   tau(  37) = (   0.2523700   0.5751200   0.0000000  )
        38           H   tau(  38) = (   0.2476300   0.0751200   0.7646137  )
        39           H   tau(  39) = (   0.9248800   0.2476300   0.7646137  )
        40           H   tau(  40) = (   0.7476300   0.4248800   0.0000000  )
        41           H   tau(  41) = (   0.5751200   0.7476300   0.0000000  )
        42           H   tau(  42) = (   0.4248800   0.2523700   0.0000000  )
        43           H   tau(  43) = (   0.7523700   0.9248800   0.7646137  )
        44           H   tau(  44) = (   0.0751200   0.7523700   0.7646137  )

     number of k points=    30  Marzari-Vanderbilt smearing, width (Ry)=  0.0050
                       cart. coord. in units 2pi/alat
        k(    1) = (   0.0000000   0.0000000   0.0000000), wk =   0.0138889
        k(    2) = (   0.0000000   0.0000000   0.1634812), wk =   0.0277778
        k(    3) = (   0.0000000   0.0000000  -0.3269625), wk =   0.0138889
        k(    4) = (   0.0000000   0.1666667   0.0000000), wk =   0.0555556
        k(    5) = (   0.0000000   0.1666667   0.1634812), wk =   0.1111111
        k(    6) = (   0.0000000   0.1666667  -0.3269625), wk =   0.0555556
        k(    7) = (   0.0000000   0.3333333   0.0000000), wk =   0.0555556
        k(    8) = (   0.0000000   0.3333333   0.1634812), wk =   0.1111111
        k(    9) = (   0.0000000   0.3333333  -0.3269625), wk =   0.0555556
        k(   10) = (   0.0000000  -0.5000000   0.0000000), wk =   0.0277778
        k(   11) = (   0.0000000  -0.5000000   0.1634812), wk =   0.0555556
        k(   12) = (   0.0000000  -0.5000000  -0.3269625), wk =   0.0277778
        k(   13) = (   0.1666667   0.1666667   0.0000000), wk =   0.0555556
        k(   14) = (   0.1666667   0.1666667   0.1634812), wk =   0.1111111
        k(   15) = (   0.1666667   0.1666667  -0.3269625), wk =   0.0555556
        k(   16) = (   0.1666667   0.3333333   0.0000000), wk =   0.1111111
        k(   17) = (   0.1666667   0.3333333   0.1634812), wk =   0.2222222
        k(   18) = (   0.1666667   0.3333333  -0.3269625), wk =   0.1111111
        k(   19) = (   0.1666667  -0.5000000   0.0000000), wk =   0.0555556
        k(   20) = (   0.1666667  -0.5000000   0.1634812), wk =   0.1111111
        k(   21) = (   0.1666667  -0.5000000  -0.3269625), wk =   0.0555556
        k(   22) = (   0.3333333   0.3333333   0.0000000), wk =   0.0555556
        k(   23) = (   0.3333333   0.3333333   0.1634812), wk =   0.1111111
        k(   24) = (   0.3333333   0.3333333  -0.3269625), wk =   0.0555556
        k(   25) = (   0.3333333  -0.5000000   0.0000000), wk =   0.0555556
        k(   26) = (   0.3333333  -0.5000000   0.1634812), wk =   0.1111111
        k(   27) = (   0.3333333  -0.5000000  -0.3269625), wk =   0.0555556
        k(   28) = (  -0.5000000  -0.5000000   0.0000000), wk =   0.0138889
        k(   29) = (  -0.5000000  -0.5000000   0.1634812), wk =   0.0277778
        k(   30) = (  -0.5000000  -0.5000000  -0.3269625), wk =   0.0138889

     Initial potential from superposition of free atoms

     starting charge  135.92309, renormalised to  136.00000
     Starting wfcs are  102 randomized atomic wfcs
     Checking if some PAW data can be deallocated...

     Self-consistent Calculation

     iteration #  1     ecut=    75.00 Ry     beta= 0.70
     Davidson diagonalization with overlap
     ethr =  1.00E-02,  avg # of iterations =  5.5

     total energy              =   -1223.45185656 Ry
     estimated scf accuracy    <       1.96917977 Ry

[...]

     total energy              =   -1223.63957925 Ry
     estimated scf accuracy    <       0.00000004 Ry

     iteration #  9     ecut=    75.00 Ry     beta= 0.70
     Davidson diagonalization with overlap
     ethr =  2.99E-11,  avg # of iterations =  2.0

     End of self-consistent calculation

          k = 0.0000 0.0000 0.0000 ( 33673 PWs)   bands (ev):

   -49.2091 -49.2091 -48.9020 -48.9020 -48.8992 -48.8992 -48.8992 -48.8992
   -48.8966 -48.8966 -21.1567 -21.1541 -21.1201 -21.1201 -21.1188 -21.1188
   -20.8753 -20.8741 -20.8611 -20.8611 -20.8610 -20.8610 -20.8609 -20.8606
   -20.8271 -20.8259 -20.8255 -20.8240 -20.8220 -20.8220 -20.8220 -20.8220
   -20.8031 -20.8031 -20.8029 -20.8029 -20.8013 -20.8009 -20.7998 -20.7998
    -6.1150  -5.8057  -4.1024  -3.8516  -2.7681  -2.6266  -2.6174  -2.5039
    -2.5039  -2.3281  -2.3281  -1.1234  -1.0139  -0.8323  -0.8323  -0.7335
    -0.6553  -0.6553  -0.2534  -0.1152   0.3221   0.7124   0.7124   0.9209
     1.1659   1.3816   1.3816   1.6210   4.4992   5.3372   6.3490   6.3490
     6.4029   6.5168   6.5852   7.0336   7.0336   7.0469   7.1639   7.2422
     7.2422   7.5327

[...]

          k = 0.3333-0.5000-0.3270 ( 33628 PWs)   bands (ev):

[...]

          k =-0.5000-0.5000 0.0000 ( 33664 PWs)   bands (ev):

[...]

          k =-0.5000-0.5000-0.3270 ( 33616 PWs)   bands (ev):

   -49.2091 -49.2091 -48.8993 -48.8993 -48.8993 -48.8993 -48.8992 -48.8992
   -48.8992 -48.8992 -21.1553 -21.1553 -21.1195 -21.1195 -21.1195 -21.1195
   -20.8512 -20.8512 -20.8510 -20.8510 -20.8463 -20.8463 -20.8463 -20.8463
   -20.8304 -20.8304 -20.8304 -20.8304 -20.8236 -20.8236 -20.8236 -20.8236
   -20.8152 -20.8152 -20.8152 -20.8152 -20.8141 -20.8141 -20.8131 -20.8131
    -5.0019  -5.0019  -4.7058  -4.7058  -4.7058  -4.7058  -2.2666  -2.2666
    -1.0721  -1.0721  -1.0721  -1.0721  -1.0072  -1.0072  -0.3504  -0.3504
    -0.2001  -0.2001  -0.0570  -0.0570   0.0759   0.0759   0.0759   0.0759
     1.0247   1.0247   1.8055   1.8055   5.7176   5.7176   5.9304   5.9304
     5.9304   5.9304   6.7296   6.7296   7.3038   7.3038   7.3038   7.3039
     7.5734   7.5734

     the Fermi energy is     2.8704 ev

!    total energy              =   -1223.63957926 Ry
     estimated scf accuracy    <          1.4E-09 Ry
     smearing contrib. (-TS)   =       0.00000000 Ry
     internal energy E=F+TS    =   -1223.63957926 Ry

     The total energy is F=E-TS. E is the sum of the following terms:
     one-electron contribution =    -816.26848600 Ry
     hartree contribution      =     437.30566277 Ry
     xc contribution           =    -179.81841030 Ry
     ewald contribution        =    -456.83040397 Ry
     one-center paw contrib.   =    -208.02794176 Ry

     convergence has been achieved in   9 iterations

     Forces acting on atoms (cartesian axes, Ry/au):

     atom    1 type  3   force =     0.00000000    0.00000000   -0.00000000
     atom    2 type  3   force =     0.00000000    0.00000000   -0.00000000
     atom    3 type  3   force =     0.00000000    0.00000000    0.00000000
     atom    4 type  3   force =     0.00000000    0.00000000   -0.00000000
     atom    5 type  3   force =     0.00000000    0.00000000   -0.00000000
     atom    6 type  3   force =     0.00000000    0.00000000    0.00000000
     atom    7 type  2   force =     0.00000000    0.00000000    0.00000000
     atom    8 type  2   force =     0.00000000    0.00000000    0.00000000
     atom    9 type  2   force =    -0.00058369   -0.00058369   -0.00000000
     atom   10 type  2   force =     0.00058369   -0.00058369    0.00000000
     atom   11 type  2   force =     0.00058369    0.00058369    0.00000000
     atom   12 type  2   force =     0.00058369   -0.00058369   -0.00000000
     atom   13 type  2   force =     0.00058369    0.00058369    0.00000000
     atom   14 type  2   force =    -0.00058369    0.00058369    0.00000000
     atom   15 type  2   force =    -0.00058369    0.00058369   -0.00000000
     atom   16 type  2   force =    -0.00058369   -0.00058369   -0.00000000
     atom   17 type  1   force =     0.00101233   -0.00185941    0.00240132
     atom   18 type  1   force =    -0.00101233   -0.00185941   -0.00240132
     atom   19 type  1   force =     0.00185941   -0.00101233   -0.00240132
     atom   20 type  1   force =    -0.00101233   -0.00185941    0.00240132
     atom   21 type  1   force =     0.00185941   -0.00101233    0.00240132
     atom   22 type  1   force =    -0.00101233    0.00185941    0.00240132
     atom   23 type  1   force =    -0.00185941   -0.00101233    0.00240132
     atom   24 type  1   force =    -0.00101233    0.00185941   -0.00240132
     atom   25 type  1   force =    -0.00185941   -0.00101233   -0.00240132
     atom   26 type  1   force =     0.00185941    0.00101233    0.00240132
     atom   27 type  1   force =     0.00101233   -0.00185941   -0.00240132
     atom   28 type  1   force =     0.00185941    0.00101233   -0.00240132
     atom   29 type  1   force =     0.00101233    0.00185941   -0.00240132
     atom   30 type  1   force =    -0.00185941    0.00101233   -0.00240132
     atom   31 type  1   force =     0.00101233    0.00185941    0.00240132
     atom   32 type  1   force =    -0.00185941    0.00101233    0.00240132
     atom   33 type  1   force =     0.00000000    0.00000000   -0.00254872
     atom   34 type  1   force =     0.00000000    0.00000000    0.00254872
     atom   35 type  1   force =     0.00000000    0.00000000   -0.00254872
     atom   36 type  1   force =     0.00000000    0.00000000    0.00254872
     atom   37 type  1   force =    -0.00065796    0.00230027   -0.00000000
     atom   38 type  1   force =     0.00065796    0.00230027    0.00000000
     atom   39 type  1   force =    -0.00230027    0.00065796    0.00000000
     atom   40 type  1   force =     0.00065796   -0.00230027   -0.00000000
     atom   41 type  1   force =     0.00230027    0.00065796    0.00000000
     atom   42 type  1   force =    -0.00230027   -0.00065796    0.00000000
     atom   43 type  1   force =    -0.00065796   -0.00230027    0.00000000
     atom   44 type  1   force =     0.00230027   -0.00065796   -0.00000000

     Total force =     0.015531     Total SCF correction =     0.000019

     Computing stress (Cartesian axis) and pressure

          total   stress  (Ry/bohr**3)                   (kbar)     P=       17.12
   0.00011247   0.00000000   0.00000000           16.55        0.00        0.00
   0.00000000   0.00011247   0.00000000            0.00       16.55        0.00
   0.00000000   0.00000000   0.00012412            0.00        0.00       18.26

     Writing output data file ./Na5Al3H14_experimental.save/

     General routines

     Parallel routines

   This run was terminated on:  22:18:21  24Oct2023

   JOB DONE.