     Program PWSCF v.6.7MaX starts on 17Oct2023 at 22:53:36

     Reading input from NaAlH4_2-2-1_50_250.in

     Current dimensions of program PWSCF are:
     Max number of different atomic species (ntypx) = 10
     Max number of k-points (npk) =  40000
     Max angular momentum in pseudopotentials (lmaxx) =  3
     file Al.pbe-n-kjpaw_psl.1.0.0.UPF: wavefunction(s)  3S 3P renormalized

     IMPORTANT: XC functional enforced from input :
     Exchange-correlation= PBE
                           (   1   4   3   4   0   0   0)
     Any further DFT definition will be discarded
     Please, verify this is what you really want

     Subspace diagonalization in iterative solution of the eigenvalue problem:
     a serial algorithm will be used

     Message from routine setup:
     using ibrav=0 with symmetry is DISCOURAGED, use correct ibrav instead

     bravais-lattice index     =            0
     lattice parameter (alat)  =       9.3373  a.u.
     unit-cell volume          =     905.3038 (a.u.)^3
     number of atoms/cell      =           12
     number of atomic types    =            3
     number of electrons       =        32.00
     number of Kohn-Sham states=           20
     kinetic-energy cutoff     =      50.0000  Ry
     charge density cutoff     =     250.0000  Ry
     scf convergence threshold =      1.0E-08
     mixing beta               =       0.7000
     number of iterations used =            8  plain     mixing
     Exchange-correlation= PBE
                           (   1   4   3   4   0   0   0)

     celldm(1)=   9.337326  celldm(2)=   0.000000  celldm(3)=   0.000000
     celldm(4)=   0.000000  celldm(5)=   0.000000  celldm(6)=   0.000000

     crystal axes: (cart. coord. in units of alat)
               a(1) = (   1.000000   0.000000   0.000000 )
               a(2) = (   0.000000   1.000000   0.000000 )
               a(3) = (   0.500000   0.500000   1.112056 )

     reciprocal axes: (cart. coord. in units 2 pi/alat)
               b(1) = (  1.000000  0.000000 -0.449617 )
               b(2) = (  0.000000  1.000000 -0.449617 )
               b(3) = (  0.000000  0.000000  0.899235 )

     PseudoPot. # 1 for Al read from file:
     ../pseudopotentials/Al.pbe-n-kjpaw_psl.1.0.0.UPF
     MD5 check sum: cfc449ca30b5f3223ec38ddd88ac046d
     Pseudo is Projector augmented-wave + core cor, Zval =  3.0
     Generated using "atomic" code by A. Dal Corso  v.5.1
     Shape of augmentation charge: PSQ
     Using radial grid of 1135 points,  6 beta functions with:
                l(1) =   0
                l(2) =   0
                l(3) =   1
                l(4) =   1
                l(5) =   2
                l(6) =   2
     Q(r) pseudized with 0 coefficients

     PseudoPot. # 2 for H  read from file:
     ../pseudopotentials/H.pbe-rrkjus_psl.1.0.0.UPF
     MD5 check sum: f52b6d4d1c606e5624b1dc7b2218f220
     Pseudo is Ultrasoft, Zval =  1.0
     Generated using "atomic" code by A. Dal Corso  v.5.1
     Using radial grid of  929 points,  2 beta functions with:
                l(1) =   0
                l(2) =   0
     Q(r) pseudized with 0 coefficients

     PseudoPot. # 3 for Na read from file:
     ../pseudopotentials/na_pbe_v1.5.uspp.F.UPF
     MD5 check sum: 44600605ef58000f06b90626533354dc
     Pseudo is Ultrasoft, Zval =  9.0
     Generated by new atomic code, or converted to UPF format
     Using radial grid of  819 points,  5 beta functions with:
                l(1) =   0
                l(2) =   0
                l(3) =   1
                l(4) =   1
                l(5) =   2
     Q(r) pseudized with  8 coefficients,  rinner =    1.250   1.250   1.250
                                                       1.250   1.250

     atomic species   valence    mass     pseudopotential
        Al             3.00    26.98100     Al( 1.00)
        H              1.00     1.00750     H ( 1.00)
        Na             9.00    22.98900     Na( 1.00)

      8 Sym. Ops., with inversion, found ( 6 have fractional translation)

   Cartesian axes

     site n.     atom                  positions (alat units)
         1           Al  tau(   1) = (   1.0000000   0.2500000   0.2780141  )
         2           Al  tau(   2) = (   0.5000000   1.2500000   0.8340423  )
         3           Na  tau(   3) = (   0.5000000   0.7500000   0.2780141  )
         4           Na  tau(   4) = (   1.0000000   0.7500000   0.8340423  )
         5           H   tau(   5) = (   0.3578100   1.0135100   0.6538447  )
         6           H   tau(   6) = (   0.7635100   0.3921900   0.0978165  )
         7           H   tau(   7) = (   1.2635100   1.3921900   1.0142399  )
         8           H   tau(   8) = (   0.8578100   1.0135100   0.4582117  )
         9           H   tau(   9) = (   0.6421900   0.4864900   0.6538447  )
        10           H   tau(  10) = (   1.1421900   0.4864900   0.4582117  )
        11           H   tau(  11) = (   0.7364900   1.1078100   1.0142399  )
        12           H   tau(  12) = (   0.2364900   0.1078100   0.0978165  )

     number of k points=     3  Marzari-Vanderbilt smearing, width (Ry)=  0.0050
                       cart. coord. in units 2pi/alat
        k(    1) = (   0.0000000   0.0000000   0.0000000), wk =   0.5000000
        k(    2) = (   0.0000000  -0.5000000   0.2248087), wk =   1.0000000
        k(    3) = (  -0.5000000  -0.5000000   0.4496175), wk =   0.5000000

     Initial potential from superposition of free atoms

     starting charge   31.98276, renormalised to   32.00000
     Starting wfcs are   26 randomized atomic wfcs
     Checking if some PAW data can be deallocated...

     Self-consistent Calculation

     iteration #  1     ecut=    50.00 Ry     beta= 0.70
     Davidson diagonalization with overlap
     ethr =  1.00E-02,  avg # of iterations =  4.7

     total energy              =    -279.11405215 Ry
     estimated scf accuracy    <       0.54585243 Ry

[...]

     total energy              =    -279.15294891 Ry
     estimated scf accuracy    <       0.00000008 Ry

     iteration #  8     ecut=    50.00 Ry     beta= 0.70
     Davidson diagonalization with overlap
     ethr =  2.46E-10,  avg # of iterations =  2.0

     End of self-consistent calculation

          k = 0.0000 0.0000 0.0000 (  5399 PWs)   bands (ev):

   -49.8527 -49.8512 -21.7862 -21.7770 -21.7770 -21.7711 -21.7711 -21.7623
    -6.2296  -2.9849  -2.2624  -1.2788  -1.2788  -0.8706  -0.8706  -0.0974
     4.7510   4.8296   5.4606   6.2939

          k = 0.0000-0.5000 0.2248 (  5414 PWs)   bands (ev):

[...]

          k =-0.5000-0.5000 0.4496 (  5378 PWs)   bands (ev):

   -49.8519 -49.8519 -21.7837 -21.7837 -21.7749 -21.7749 -21.7653 -21.7653
    -4.4443  -4.4443  -2.1037  -2.1037  -1.8334  -1.8334  -0.6534  -0.6534
     5.0493   5.0493   7.2028   7.2029

     the Fermi energy is    -0.0352 ev

!    total energy              =    -279.15294892 Ry
     estimated scf accuracy    <          6.3E-09 Ry
     smearing contrib. (-TS)   =       0.00022006 Ry
     internal energy E=F+TS    =    -279.15316898 Ry

     The total energy is F=E-TS. E is the sum of the following terms:
     one-electron contribution =    -172.67140981 Ry
     hartree contribution      =      92.90908105 Ry
     xc contribution           =     -39.59966426 Ry
     ewald contribution        =     -90.40844892 Ry
     one-center paw contrib.   =     -69.38272704 Ry

     convergence has been achieved in   8 iterations

     Forces acting on atoms (cartesian axes, Ry/au):

     atom    1 type  1   force =     0.00000000    0.00000000   -0.00000000
     atom    2 type  1   force =     0.00000000    0.00000000   -0.00000000
     atom    3 type  3   force =     0.00000000    0.00000000    0.00000000
     atom    4 type  3   force =     0.00000000    0.00000000   -0.00000000
     atom    5 type  2   force =    -0.00304897   -0.00191253   -0.00291289
     atom    6 type  2   force =    -0.00191253    0.00304897   -0.00291289
     atom    7 type  2   force =    -0.00191253    0.00304897    0.00291289
     atom    8 type  2   force =    -0.00304897   -0.00191253    0.00291289
     atom    9 type  2   force =     0.00304897    0.00191253   -0.00291289
     atom   10 type  2   force =     0.00304897    0.00191253    0.00291289
     atom   11 type  2   force =     0.00191253   -0.00304897    0.00291289
     atom   12 type  2   force =     0.00191253   -0.00304897   -0.00291289

     Total force =     0.013096     Total SCF correction =     0.000014

     Computing stress (Cartesian axis) and pressure

          total   stress  (Ry/bohr**3)                   (kbar)     P=       11.82
   0.00009192   0.00000000   0.00000000           13.52        0.00        0.00
  -0.00000000   0.00009192   0.00000000           -0.00       13.52        0.00
   0.00000000   0.00000000   0.00005715            0.00        0.00        8.41

     Writing output data file ./NaAlH4_2-2-1_50_250.save/

     General routines

     Parallel routines

   This run was terminated on:  22:53:51  17Oct2023

   JOB DONE.