     Program PWSCF v.6.7MaX starts on 17Oct2023 at 21:15:30

     Reading input from NaAlH4.in

     Current dimensions of program PWSCF are:
     Max number of different atomic species (ntypx) = 10
     Max number of k-points (npk) =  40000
     Max angular momentum in pseudopotentials (lmaxx) =  3
     file Al.pbe-n-kjpaw_psl.1.0.0.UPF: wavefunction(s)  3S 3P renormalized

     IMPORTANT: XC functional enforced from input :
     Exchange-correlation= PBE
                           (   1   4   3   4   0   0   0)
     Any further DFT definition will be discarded
     Please, verify this is what you really want

     Subspace diagonalization in iterative solution of the eigenvalue problem:
     a serial algorithm will be used

     Message from routine setup:
     using ibrav=0 with symmetry is DISCOURAGED, use correct ibrav instead

     bravais-lattice index     =            0
     lattice parameter (alat)  =       9.3373  a.u.
     unit-cell volume          =     905.3038 (a.u.)^3
     number of atoms/cell      =           12
     number of atomic types    =            3
     number of electrons       =        32.00
     number of Kohn-Sham states=           20
     kinetic-energy cutoff     =      50.0000  Ry
     charge density cutoff     =     250.0000  Ry
     scf convergence threshold =      1.0E-08
     mixing beta               =       0.7000
     number of iterations used =            8  plain     mixing
     Exchange-correlation= PBE
                           (   1   4   3   4   0   0   0)

     celldm(1)=   9.337326  celldm(2)=   0.000000  celldm(3)=   0.000000
     celldm(4)=   0.000000  celldm(5)=   0.000000  celldm(6)=   0.000000

     crystal axes: (cart. coord. in units of alat)
               a(1) = (   1.000000   0.000000   0.000000 )
               a(2) = (   0.000000   1.000000   0.000000 )
               a(3) = (   0.500000   0.500000   1.112056 )

     reciprocal axes: (cart. coord. in units 2 pi/alat)
               b(1) = (  1.000000  0.000000 -0.449617 )
               b(2) = (  0.000000  1.000000 -0.449617 )
               b(3) = (  0.000000  0.000000  0.899235 )

     PseudoPot. # 1 for Al read from file:
     /home/vojta/Dokumenty/UA_CompPhys/pseudopotentials/Al.pbe-n-kjpaw_psl.1.0.0.UPF
     MD5 check sum: cfc449ca30b5f3223ec38ddd88ac046d
     Pseudo is Projector augmented-wave + core cor, Zval =  3.0
     Generated using "atomic" code by A. Dal Corso  v.5.1
     Shape of augmentation charge: PSQ
     Using radial grid of 1135 points,  6 beta functions with:
                l(1) =   0
                l(2) =   0
                l(3) =   1
                l(4) =   1
                l(5) =   2
                l(6) =   2
     Q(r) pseudized with 0 coefficients

     PseudoPot. # 2 for H  read from file:
     /home/vojta/Dokumenty/UA_CompPhys/pseudopotentials/H.pbe-rrkjus_psl.1.0.0.UPF
     MD5 check sum: f52b6d4d1c606e5624b1dc7b2218f220
     Pseudo is Ultrasoft, Zval =  1.0
     Generated using "atomic" code by A. Dal Corso  v.5.1
     Using radial grid of  929 points,  2 beta functions with:
                l(1) =   0
                l(2) =   0
     Q(r) pseudized with 0 coefficients

     PseudoPot. # 3 for Na read from file:
     /home/vojta/Dokumenty/UA_CompPhys/pseudopotentials/na_pbe_v1.5.uspp.F.UPF
     MD5 check sum: 44600605ef58000f06b90626533354dc
     Pseudo is Ultrasoft, Zval =  9.0
     Generated by new atomic code, or converted to UPF format
     Using radial grid of  819 points,  5 beta functions with:
                l(1) =   0
                l(2) =   0
                l(3) =   1
                l(4) =   1
                l(5) =   2
     Q(r) pseudized with  8 coefficients,  rinner =    1.250   1.250   1.250
                                                       1.250   1.250

     atomic species   valence    mass     pseudopotential
        Al             3.00    26.98100     Al( 1.00)
        H              1.00     1.00750     H ( 1.00)
        Na             9.00    22.98900     Na( 1.00)

      8 Sym. Ops., with inversion, found ( 6 have fractional translation)

   Cartesian axes

     site n.     atom                  positions (alat units)
         1           Al  tau(   1) = (   1.0000000   0.2500000   0.2780141  )
         2           Al  tau(   2) = (   0.5000000   1.2500000   0.8340423  )
         3           Na  tau(   3) = (   0.5000000   0.7500000   0.2780141  )
         4           Na  tau(   4) = (   1.0000000   0.7500000   0.8340423  )
         5           H   tau(   5) = (   0.3578100   1.0135100   0.6538447  )
         6           H   tau(   6) = (   0.7635100   0.3921900   0.0978165  )
         7           H   tau(   7) = (   1.2635100   1.3921900   1.0142399  )
         8           H   tau(   8) = (   0.8578100   1.0135100   0.4582117  )
         9           H   tau(   9) = (   0.6421900   0.4864900   0.6538447  )
        10           H   tau(  10) = (   1.1421900   0.4864900   0.4582117  )
        11           H   tau(  11) = (   0.7364900   1.1078100   1.0142399  )
        12           H   tau(  12) = (   0.2364900   0.1078100   0.0978165  )

     number of k points=    11  Marzari-Vanderbilt smearing, width (Ry)=  0.0050
                       cart. coord. in units 2pi/alat
        k(    1) = (   0.0000000   0.0000000   0.0000000), wk =   0.0625000
        k(    2) = (   0.0000000   0.0000000  -0.4496175), wk =   0.0625000
        k(    3) = (   0.0000000   0.2500000  -0.1124044), wk =   0.2500000
        k(    4) = (   0.0000000   0.2500000  -0.5620219), wk =   0.2500000
        k(    5) = (   0.0000000  -0.5000000   0.2248087), wk =   0.2500000
        k(    6) = (   0.2500000   0.2500000  -0.2248087), wk =   0.2500000
        k(    7) = (   0.2500000  -0.5000000   0.1124044), wk =   0.2500000
        k(    8) = (   0.2500000  -0.2500000   0.0000000), wk =   0.1250000
        k(    9) = (   0.2500000  -0.2500000  -0.4496175), wk =   0.1250000
        k(   10) = (  -0.5000000  -0.5000000   0.4496175), wk =   0.1250000
        k(   11) = (  -0.5000000   0.2500000  -0.1124044), wk =   0.2500000

     Initial potential from superposition of free atoms

     starting charge   31.98276, renormalised to   32.00000
     Starting wfcs are   26 randomized atomic wfcs
     Checking if some PAW data can be deallocated...

     Self-consistent Calculation

     iteration #  1     ecut=    50.00 Ry     beta= 0.70
     Davidson diagonalization with overlap
     ethr =  1.00E-02,  avg # of iterations =  4.0

     total energy              =    -279.10738065 Ry
     estimated scf accuracy    <       0.55150481 Ry

[...]

     total energy              =    -279.14693392 Ry
     estimated scf accuracy    <       0.00000002 Ry

     iteration #  8     ecut=    50.00 Ry     beta= 0.70
     Davidson diagonalization with overlap
     ethr =  7.08E-11,  avg # of iterations =  2.0

     End of self-consistent calculation

          k = 0.0000 0.0000 0.0000 (  5399 PWs)   bands (ev):

   -49.8268 -49.8252 -21.7595 -21.7519 -21.7519 -21.7460 -21.7460 -21.7355
    -6.2357  -2.9937  -2.2664  -1.2806  -1.2806  -0.8744  -0.8744  -0.1004
     4.7481   4.8216   5.4563   6.2883

[...]

          k = 0.2500-0.2500-0.4496 (  5416 PWs)   bands (ev):

[...]

          k =-0.5000-0.5000 0.4496 (  5378 PWs)   bands (ev):

[...]

          k =-0.5000 0.2500-0.1124 (  5395 PWs)   bands (ev):

   -49.8263 -49.8257 -21.7584 -21.7562 -21.7514 -21.7476 -21.7415 -21.7381
    -5.0589  -4.1521  -2.5842  -1.9092  -1.5618  -1.0731  -0.8429  -0.2295
     5.0609   5.7944   6.2835   6.4891

     the Fermi energy is     0.0224 ev

!    total energy              =    -279.14693393 Ry
     estimated scf accuracy    <          6.1E-10 Ry
     smearing contrib. (-TS)   =       0.00025201 Ry
     internal energy E=F+TS    =    -279.14718593 Ry

     The total energy is F=E-TS. E is the sum of the following terms:
     one-electron contribution =    -172.69000375 Ry
     hartree contribution      =      92.93439736 Ry
     xc contribution           =     -39.60055233 Ry
     ewald contribution        =     -90.40844892 Ry
     one-center paw contrib.   =     -69.38257829 Ry

     convergence has been achieved in   8 iterations

     Forces acting on atoms (cartesian axes, Ry/au):

     atom    1 type  1   force =     0.00000000    0.00000000    0.00000000
     atom    2 type  1   force =     0.00000000    0.00000000    0.00000000
     atom    3 type  3   force =     0.00000000    0.00000000    0.00000000
     atom    4 type  3   force =     0.00000000    0.00000000    0.00000000
     atom    5 type  2   force =    -0.00197814   -0.00292422   -0.00264386
     atom    6 type  2   force =    -0.00292422    0.00197814   -0.00264386
     atom    7 type  2   force =    -0.00292422    0.00197814    0.00264386
     atom    8 type  2   force =    -0.00197814   -0.00292422    0.00264386
     atom    9 type  2   force =     0.00197814    0.00292422   -0.00264386
     atom   10 type  2   force =     0.00197814    0.00292422    0.00264386
     atom   11 type  2   force =     0.00292422   -0.00197814    0.00264386
     atom   12 type  2   force =     0.00292422   -0.00197814   -0.00264386

     Total force =     0.012475     Total SCF correction =     0.000003

     Computing stress (Cartesian axis) and pressure

          total   stress  (Ry/bohr**3)                   (kbar)     P=       13.43
   0.00009307  -0.00000000   0.00000000           13.69       -0.00        0.00
   0.00000000   0.00009307   0.00000000            0.00       13.69        0.00
   0.00000000   0.00000000   0.00008768            0.00        0.00       12.90

     Writing output data file ./results/NaAlH4_442_50_250.save/

     General routines

     Parallel routines

   This run was terminated on:  21:16: 3  17Oct2023

   JOB DONE.