     Program PWSCF v.7.1 starts on  1Dec2023 at 12:28:50

     Reading input from na3gah6.in

     Current dimensions of program PWSCF are:
     Max number of different atomic species (ntypx) = 10
     Max number of k-points (npk) =  40000
     Max angular momentum in pseudopotentials (lmaxx) =  4
     file Ga.pbe-dn-kjpaw_psl.1.0.0.UPF: wavefunction(s)  4S renormalized

     IMPORTANT: XC functional enforced from input :
     Exchange-correlation= PBE
                           (   1   4   3   4   0   0   0)
     Any further DFT definition will be discarded
     Please, verify this is what you really want

     Message from routine setup:
     using ibrav=0 with symmetry is DISCOURAGED, use correct ibrav instead

     K-points division:     npool     =       2
     R & G space division:  proc/nbgrp/npool/nimage =      72
     Subspace diagonalization in iterative solution of the eigenvalue problem:
     a serial algorithm will be used

     Using Slab Decomposition

     bravais-lattice index     =            0
     lattice parameter (alat)  =      14.0952  a.u.
     unit-cell volume          =    4187.6791 (a.u.)^3
     number of atoms/cell      =           20
     number of atomic types    =            3
     number of electrons       =        92.00
     number of Kohn-Sham states=           55
     kinetic-energy cutoff     =      75.0000  Ry
     charge density cutoff     =     375.0000  Ry
     scf convergence threshold =      1.0E-08
     mixing beta               =       0.7000
     number of iterations used =            8  plain     mixing
     energy convergence thresh.=      1.0E-04
     force convergence thresh. =      1.0E-03
     press convergence thresh. =      5.0E-01
     Exchange-correlation= PBE
                           (   1   4   3   4   0   0   0)
     nstep                     =           50

     celldm(1)=  14.095203  celldm(2)=   0.000000  celldm(3)=   0.000000
     celldm(4)=   0.000000  celldm(5)=   0.000000  celldm(6)=   0.000000

     crystal axes: (cart. coord. in units of alat)
               a(1) = (   1.000000   0.000000   0.000000 )
               a(2) = (   0.000000   1.037807   0.000000 )
               a(3) = (  -1.000563   0.000000   1.440930 )

     reciprocal axes: (cart. coord. in units 2 pi/alat)
               b(1) = (  1.000000  0.000000  0.694387 )
               b(2) = (  0.000000  0.963570  0.000000 )
               b(3) = (  0.000000  0.000000  0.693996 )

     PseudoPot. # 1 for H  read from file:
     /home/garima.iitr/.cache/.es/compmat/nagah4/H.pbe-rrkjus_psl.1.0.0.UPF
     MD5 check sum: 3f4114867bd07edc7f1424d066fc1888
     Pseudo is Ultrasoft, Zval =  1.0
     Generated using &quot;atomic&quot; code by A. Dal Corso  v.6.3MaX
     Using radial grid of  929 points,  2 beta functions with:
                l(1) =   0
                l(2) =   0
     Q(r) pseudized with 0 coefficients

     PseudoPot. # 2 for Ga read from file:
     /home/garima.iitr/.cache/.es/compmat/nagah4/Ga.pbe-dn-kjpaw_psl.1.0.0.UPF
     MD5 check sum: 50ce49cbf7e0a40ad8623bf41840a268
     Pseudo is Projector augmented-wave + core cor, Zval = 13.0
     Generated using &quot;atomic&quot; code by A. Dal Corso  v.6.3
     Shape of augmentation charge: PSQ
     Using radial grid of 1205 points,  6 beta functions with:
                l(1) =   0
                l(2) =   0
                l(3) =   1
                l(4) =   1
                l(5) =   2
                l(6) =   2
     Q(r) pseudized with 0 coefficients

     PseudoPot. # 3 for Na read from file:
     /home/garima.iitr/.cache/.es/compmat/nagah4/na_pbe_v1.5.uspp.F.UPF
     MD5 check sum: 44600605ef58000f06b90626533354dc
     Pseudo is Ultrasoft, Zval =  9.0
     Generated by new atomic code, or converted to UPF format
     Using radial grid of  819 points,  5 beta functions with:
                l(1) =   0
                l(2) =   0
                l(3) =   1
                l(4) =   1
                l(5) =   2
     Q(r) pseudized with  8 coefficients,  rinner =    1.250   1.250   1.250
                                                       1.250   1.250

     atomic species   valence    mass     pseudopotential
        H              1.00     1.00750     H ( 1.00)
        Ga            13.00    69.72300     Ga( 1.00)
        Na             9.00    22.98900     Na( 1.00)

      4 Sym. Ops., with inversion, found ( 2 have fractional translation)

   Cartesian axes

     site n.     atom                  positions (alat units)
         1           Ga  tau(   1) = (   0.5000000   0.0000000   0.0000000  )
         2           Ga  tau(   2) = (  -0.0002816   0.5189036   0.7204648  )
         3           Na  tau(   3) = (  -0.5002816   0.0000000   0.7204648  )
         4           Na  tau(   4) = (   0.0000000   0.5189036   0.0000000  )
         5           Na  tau(   5) = (  -0.0879586   0.8914190   0.5152778  )
         6           Na  tau(   6) = (   0.0873954   0.1463882   0.9256518  )
         7           Na  tau(   7) = (   0.5876770   0.3725154   0.2051870  )
         8           Na  tau(   8) = (  -0.5882402   0.6652917   1.2357426  )
         9           H   tau(   9) = (  -0.2024620   0.8853343   0.7776347  )
        10           H   tau(  10) = (   0.2018988   0.1524729   0.6632948  )
        11           H   tau(  11) = (  -0.2983827   0.3664307   1.3837596  )
        12           H   tau(  12) = (   0.2978196   0.6713765   0.0571700  )
        13           H   tau(  13) = (  -0.3286160   0.9293438   1.4333040  )
        14           H   tau(  14) = (   0.3280528   0.1084634   0.0076256  )
        15           H   tau(  15) = (  -0.1722288   0.4104402   0.7280904  )
        16           H   tau(  16) = (   0.1716656   0.6273670   0.7128392  )
        17           H   tau(  17) = (  -0.6108451   0.9490747   1.1993821  )
        18           H   tau(  18) = (   0.6102819   0.0887325   0.2415475  )
        19           H   tau(  19) = (   0.1100003   0.4301711   0.9620123  )
        20           H   tau(  20) = (  -0.1105635   0.6076361   0.4789173  )

     number of k points=    40  Marzari-Vanderbilt smearing, width (Ry)=  0.0050
                       cart. coord. in units 2pi/alat
        k(    1) = (   0.0000000   0.0000000   0.0000000), wk =   0.0185185
        k(    2) = (   0.0000000   0.0000000   0.2313322), wk =   0.0370370
        k(    3) = (   0.0000000   0.1605950   0.0000000), wk =   0.0370370
        k(    4) = (   0.0000000   0.1605950   0.2313322), wk =   0.0740741
        k(    5) = (   0.0000000   0.3211900   0.0000000), wk =   0.0370370
        k(    6) = (   0.0000000   0.3211900   0.2313322), wk =   0.0740741
        k(    7) = (   0.0000000  -0.4817851   0.0000000), wk =   0.0185185
        k(    8) = (   0.0000000  -0.4817851   0.2313322), wk =   0.0370370
        k(    9) = (   0.1666667   0.0000000   0.1157312), wk =   0.0370370
        k(   10) = (   0.1666667   0.0000000   0.3470634), wk =   0.0370370
        k(   11) = (   0.1666667   0.0000000  -0.1156009), wk =   0.0370370
        k(   12) = (   0.1666667   0.1605950   0.1157312), wk =   0.0740741
        k(   13) = (   0.1666667   0.1605950   0.3470634), wk =   0.0740741
        k(   14) = (   0.1666667   0.1605950  -0.1156009), wk =   0.0740741
        k(   15) = (   0.1666667   0.3211900   0.1157312), wk =   0.0740741
        k(   16) = (   0.1666667   0.3211900   0.3470634), wk =   0.0740741
        k(   17) = (   0.1666667   0.3211900  -0.1156009), wk =   0.0740741
        k(   18) = (   0.1666667  -0.4817851   0.1157312), wk =   0.0370370
        k(   19) = (   0.1666667  -0.4817851   0.3470634), wk =   0.0370370
        k(   20) = (   0.1666667  -0.4817851  -0.1156009), wk =   0.0370370
        k(   21) = (   0.3333333   0.0000000   0.2314624), wk =   0.0370370
        k(   22) = (   0.3333333   0.0000000   0.4627946), wk =   0.0370370
        k(   23) = (   0.3333333   0.0000000   0.0001303), wk =   0.0370370
        k(   24) = (   0.3333333   0.1605950   0.2314624), wk =   0.0740741
        k(   25) = (   0.3333333   0.1605950   0.4627946), wk =   0.0740741
        k(   26) = (   0.3333333   0.1605950   0.0001303), wk =   0.0740741
        k(   27) = (   0.3333333   0.3211900   0.2314624), wk =   0.0740741
        k(   28) = (   0.3333333   0.3211900   0.4627946), wk =   0.0740741
        k(   29) = (   0.3333333   0.3211900   0.0001303), wk =   0.0740741
        k(   30) = (   0.3333333  -0.4817851   0.2314624), wk =   0.0370370
        k(   31) = (   0.3333333  -0.4817851   0.4627946), wk =   0.0370370
        k(   32) = (   0.3333333  -0.4817851   0.0001303), wk =   0.0370370
        k(   33) = (  -0.5000000   0.0000000  -0.3471936), wk =   0.0185185
        k(   34) = (  -0.5000000   0.0000000  -0.1158615), wk =   0.0370370
        k(   35) = (  -0.5000000   0.1605950  -0.3471936), wk =   0.0370370
        k(   36) = (  -0.5000000   0.1605950  -0.1158615), wk =   0.0740741
        k(   37) = (  -0.5000000   0.3211900  -0.3471936), wk =   0.0370370
        k(   38) = (  -0.5000000   0.3211900  -0.1158615), wk =   0.0740741
        k(   39) = (  -0.5000000  -0.4817851  -0.3471936), wk =   0.0185185
        k(   40) = (  -0.5000000  -0.4817851  -0.1158615), wk =   0.0370370

     Initial potential from superposition of free atoms

     starting charge      91.9562, renormalised to      92.0000
     Starting wfcs are   60 randomized atomic wfcs
     Checking if some PAW data can be deallocated...

     Self-consistent Calculation

     iteration #  1     ecut=    75.00 Ry     beta= 0.70
     Davidson diagonalization with overlap
     ethr =  1.00E-02,  avg # of iterations =  4.0

     total energy              =   -1141.07996841 Ry
     estimated scf accuracy    <       1.50706150 Ry

[...]

     iteration #  4     ecut=    75.00 Ry     beta= 0.70
     Davidson diagonalization with overlap
     c_bands:  1 eigenvalues not converged
     ethr =  9.57E-06,  avg # of iterations =  8.4

[...]

     End of self-consistent calculation

          k = 0.0000 0.0000 0.0000 ( 45919 PWs)   bands (ev):

   -54.1550 -54.1550 -53.2835 -53.2835 -53.2834 -53.2834 -26.1070 -26.1070
   -26.0956 -26.0956 -25.9898 -25.9898 -25.2414 -25.2413 -25.2408 -25.2408
   -25.1920 -25.1919 -25.1917 -25.1916 -25.1712 -25.1711 -25.1676 -25.1675
   -16.3089 -16.3089 -16.1498 -16.1498 -16.0915 -16.0915 -16.0901 -16.0901
   -15.9061 -15.9061  -8.2897  -8.2681  -5.2746  -5.2656  -3.7320  -3.5881
    -3.0618  -2.9215  -2.5028  -2.4102  -1.7638  -1.7411   0.5988   0.7106
     0.7184   1.1506   1.7181   1.7612   2.2927   2.4623   2.5067

[...]

          k =-0.5000 0.0000-0.3472 ( 45920 PWs)   bands (ev):

[...]

     the Fermi energy is    -0.2031 ev

!    total energy              =   -1141.47632677 Ry
     estimated scf accuracy    <          9.1E-09 Ry
     smearing contrib. (-TS)   =      -0.00000000 Ry
     internal energy E=F+TS    =   -1141.47632677 Ry

     The total energy is F=E-TS. E is the sum of the following terms:
     one-electron contribution =   -1003.22059191 Ry
     hartree contribution      =     520.85363019 Ry
     xc contribution           =    -170.15150595 Ry
     ewald contribution        =    -266.40605150 Ry
     one-center paw contrib.   =    -222.55180760 Ry

     convergence has been achieved in   9 iterations

     Forces acting on atoms (cartesian axes, Ry/au):

     atom    1 type  2   force =     0.00000000    0.00000000    0.00000000
     atom    2 type  2   force =     0.00000000    0.00000000    0.00000000
     atom    3 type  3   force =     0.00000000    0.00000000    0.00000000
     atom    4 type  3   force =     0.00000000    0.00000000    0.00000000
     atom    5 type  3   force =     0.00324963    0.00299748   -0.00177298
     atom    6 type  3   force =    -0.00324963   -0.00299748    0.00177298
     atom    7 type  3   force =    -0.00324963    0.00299748    0.00177298
     atom    8 type  3   force =     0.00324963   -0.00299748   -0.00177298
     atom    9 type  1   force =    -0.00871144    0.00954728   -0.00121676
     atom   10 type  1   force =     0.00871144   -0.00954728    0.00121676
     atom   11 type  1   force =     0.00871144    0.00954728    0.00121676
     atom   12 type  1   force =    -0.00871144   -0.00954728   -0.00121676
     atom   13 type  1   force =     0.01277304   -0.01707980   -0.01147179
     atom   14 type  1   force =    -0.01277304    0.01707980    0.01147179
     atom   15 type  1   force =    -0.01277304   -0.01707980    0.01147179
     atom   16 type  1   force =     0.01277304    0.01707980   -0.01147179
     atom   17 type  1   force =     0.01340902    0.00448148    0.00064318
     atom   18 type  1   force =    -0.01340902   -0.00448148   -0.00064318
     atom   19 type  1   force =    -0.01340902    0.00448148   -0.00064318
     atom   20 type  1   force =     0.01340902   -0.00448148    0.00064318

     Total force =     0.062545     Total SCF correction =     0.000023

     Computing stress (Cartesian axis) and pressure

          total   stress  (Ry/bohr**3)                   (kbar)     P=      -14.18
  -0.00010959   0.00000000  -0.00009621          -16.12        0.00      -14.15
   0.00000000  -0.00008767   0.00000000            0.00      -12.90        0.00
  -0.00009621   0.00000000  -0.00009190          -14.15        0.00      -13.52

     BFGS Geometry Optimization
     Energy error            =      0.0E+00 Ry
     Gradient error          =      1.7E-02 Ry/Bohr
     Cell gradient error     =      1.6E+01 kbar

     number of scf cycles    =   1
     number of bfgs steps    =   0

     enthalpy           new  =   -1141.4763267728 Ry

     new trust radius        =       0.0471845665 bohr
     new conv_thr            =       0.0000000100 Ry

     new unit-cell volume =   4157.45420 a.u.^3 (   616.07115 Ang^3 )
     density =      0.78023 g/cm^3

CELL_PARAMETERS (alat= 14.09520260)
   0.997260338   0.000000000  -0.002405311
   0.000000000   1.035532471   0.000000000
  -1.001287858   0.000000000   1.440025528

ATOMIC_POSITIONS (crystal)
Ga            0.5000000000        0.0000000000        0.0000000000
Ga            0.5000000000        0.5000000000        0.5000000000
Na            0.0000000000        0.0000000000        0.5000000000
Na            0.0000000000        0.5000000000        0.0000000000
Na            0.2699869620        0.8591496539        0.3575136646
Na            0.7300130380        0.1408503461        0.6424863354
Na            0.7300130380        0.3591496539        0.1424863354
Na            0.2699869620        0.6408503461        0.8575136646
H             0.3368396670        0.8537343111        0.5396158382
H             0.6631603330        0.1462656889        0.4603841618
H             0.6631603330        0.3537343111        0.9603841618
H             0.3368396670        0.6462656889        0.0396158382
H             0.6669931501        0.8943203044        0.9941430478
H             0.3330068499        0.1056796956        0.0058569522
H             0.3330068499        0.3943203044        0.5058569522
H             0.6669931501        0.6056796956        0.4941430478
H             0.2229735899        0.9148063745        0.8323985613
H             0.7770264101        0.0851936255        0.1676014387
H             0.7770264101        0.4148063745        0.6676014387
H             0.2229735899        0.5851936255        0.3323985613

     Writing config-only to output data dir ./na3gah6.save/
     NEW-OLD atomic charge density approx. for the potential
     extrapolated charge   91.33147, renormalised to   92.00000

[...]

     Energy error            =      8.6E-03 Ry
     Gradient error          =      1.5E-02 Ry/Bohr
     Cell gradient error     =      1.7E+01 kbar

[...]

     enthalpy           old  =   -1141.4763267728 Ry
     enthalpy           new  =   -1141.4849647083 Ry

     CASE: enthalpy          _new < enthalpy          _old

     WARNING: bfgs curvature condition failed, Theta= 0.830
     new trust radius        =       0.0519717192 bohr
     new conv_thr            =       0.0000000015 Ry

[...]

     Writing config-only to output data dir ./na3gah6.save/
     NEW-OLD atomic charge density approx. for the potential

     negative rho (up, down):  5.886E-07 0.000E+00
     extrapolated charge   90.27268, renormalised to   92.00000

[...]

     negative rho (up, down):  2.574E-07 0.000E+00

[...]

     iteration #  1     ecut=    75.00 Ry     beta= 0.70
     Davidson diagonalization with overlap
     c_bands:  1 eigenvalues not converged
     c_bands:  1 eigenvalues not converged
     c_bands:  2 eigenvalues not converged
     c_bands:  3 eigenvalues not converged
     c_bands:  3 eigenvalues not converged
     c_bands:  1 eigenvalues not converged
     c_bands:  3 eigenvalues not converged
     c_bands:  1 eigenvalues not converged
     c_bands:  2 eigenvalues not converged
     c_bands:  5 eigenvalues not converged
     c_bands:  3 eigenvalues not converged
     c_bands:  3 eigenvalues not converged
     c_bands:  3 eigenvalues not converged
     c_bands:  2 eigenvalues not converged
     ethr =  1.00E-06,  avg # of iterations = 39.6
     Minimization algorithm failed to find Fermi energy: reverting to bisection
     Possible cause: smearing is larger than the electronic band-gap.

[...]

     negative rho (up, down):  1.167E-03 0.000E+00

[...]

     WARNING: bfgs curvature condition failed, Theta= 0.982
     new trust radius        =       0.1030860051 bohr
     new conv_thr            =       0.0000000029 Ry

[...]

     WARNING: integrated charge=    92.00052466, expected=    92.00000000

[...]

     WARNING: integrated charge=    92.00003960, expected=    92.00000000

[...]

     Writing config-only to output data dir ./na3gah6.save/
     NEW-OLD atomic charge density approx. for the potential

     negative rho (up, down):  5.180E-06 0.000E+00
     extrapolated charge   93.66505, renormalised to   92.00000

[...]

     iteration #  1     ecut=    75.00 Ry     beta= 0.70
     Davidson diagonalization with overlap
     c_bands:  1 eigenvalues not converged
     c_bands:  1 eigenvalues not converged
     c_bands:  1 eigenvalues not converged
     c_bands:  1 eigenvalues not converged
     ethr =  1.00E-06,  avg # of iterations = 15.4

[...]

     new trust radius        =       0.0278545553 bohr
     new conv_thr            =       0.0000000006 Ry

     new unit-cell volume =   1595.11530 a.u.^3 (   236.37170 Ang^3 )
     density =      2.03356 g/cm^3

[...]

     Self-consistent Calculation

[...]

     total energy              =   -1142.00018104 Ry
     estimated scf accuracy    <       0.00000008 Ry

     iteration # 16     ecut=    75.00 Ry     beta= 0.70
     Davidson diagonalization with overlap
     ethr =  8.26E-11,  avg # of iterations =  5.0

     End of self-consistent calculation

[...]

          k = 0.4633-0.6710-0.0041 ( 45916 PWs)   bands (ev):

[...]

          k =-0.6957-0.6710-0.1507 ( 45914 PWs)   bands (ev):

   -49.0888 -49.0888 -49.0885 -49.0885 -48.7206 -48.7206 -21.0294 -21.0294
   -21.0283 -21.0283 -21.0140 -21.0140 -21.0026 -21.0026 -21.0004 -21.0004
   -21.0001 -21.0001 -20.6582 -20.6582 -20.6546 -20.6546 -20.6492 -20.6492
   -11.4061 -11.4061 -11.3968 -11.3968 -11.2871 -11.2871 -11.2806 -11.2806
   -11.2719 -11.2719  -4.7513  -4.7513  -1.5943  -1.5943  -0.9956  -0.9956
    -0.9079  -0.9079   0.8255   0.8255   2.0763   2.0763   6.0627   6.0627
     6.9970   6.9970   7.8877   7.8877   8.3970   8.3974   8.6644

     the Fermi energy is     3.1078 ev

!    total energy              =   -1142.00018105 Ry
     estimated scf accuracy    <          1.1E-10 Ry
     smearing contrib. (-TS)   =      -0.00000000 Ry
     internal energy E=F+TS    =   -1142.00018105 Ry

     The total energy is F=E-TS. E is the sum of the following terms:
     one-electron contribution =    -715.00404771 Ry
     hartree contribution      =     392.86690447 Ry
     xc contribution           =    -171.36225156 Ry
     ewald contribution        =    -425.22612264 Ry
     one-center paw contrib.   =    -223.27466361 Ry

     convergence has been achieved in  16 iterations

     Forces acting on atoms (cartesian axes, Ry/au):

     atom    1 type  2   force =     0.00000000    0.00000000    0.00000000
     atom    2 type  2   force =     0.00000000    0.00000000    0.00000000
     atom    3 type  3   force =     0.00000000    0.00000000    0.00000000
     atom    4 type  3   force =     0.00000000    0.00000000    0.00000000
     atom    5 type  3   force =     0.00069290   -0.00426208    0.00101110
     atom    6 type  3   force =    -0.00069290    0.00426208   -0.00101110
     atom    7 type  3   force =    -0.00069290   -0.00426208   -0.00101110
     atom    8 type  3   force =     0.00069290    0.00426208    0.00101110
     atom    9 type  1   force =     0.00006938    0.00011864    0.00273558
     atom   10 type  1   force =    -0.00006938   -0.00011864   -0.00273558
     atom   11 type  1   force =    -0.00006938    0.00011864   -0.00273558
     atom   12 type  1   force =     0.00006938   -0.00011864    0.00273558
     atom   13 type  1   force =     0.00431012   -0.00072761   -0.00119205
     atom   14 type  1   force =    -0.00431012    0.00072761    0.00119205
     atom   15 type  1   force =    -0.00431012   -0.00072761    0.00119205
     atom   16 type  1   force =     0.00431012    0.00072761   -0.00119205
     atom   17 type  1   force =    -0.00258949   -0.00181535   -0.00315139
     atom   18 type  1   force =     0.00258949    0.00181535    0.00315139
     atom   19 type  1   force =     0.00258949   -0.00181535    0.00315139
     atom   20 type  1   force =    -0.00258949    0.00181535   -0.00315139

     Total force =     0.016447     Total SCF correction =     0.000001

     Computing stress (Cartesian axis) and pressure

          total   stress  (Ry/bohr**3)                   (kbar)     P=        0.31
   0.00004092   0.00000000   0.00000185            6.02        0.00        0.27
   0.00000000  -0.00002118   0.00000000            0.00       -3.12        0.00
   0.00000185   0.00000000  -0.00001342            0.27        0.00       -1.97

     Energy error            =      4.3E-04 Ry
     Gradient error          =      4.3E-03 Ry/Bohr
     Cell gradient error     =      6.0E+00 kbar

     number of scf cycles    =  50
     number of bfgs steps    =  49

     enthalpy           old  =   -1141.9997463939 Ry
     enthalpy           new  =   -1142.0001810481 Ry

     CASE: enthalpy          _new < enthalpy          _old

     new trust radius        =       0.0325769371 bohr

     The maximum number of steps has been reached.

     End of BFGS Geometry Optimization
     new unit-cell volume =   1601.32912 a.u.^3 (   237.29249 Ang^3 )
     density =      2.02567 g/cm^3

CELL_PARAMETERS (alat= 14.09520260)
   0.722297196   0.000000000  -0.004681104
   0.000000000   0.745801375   0.000000000
  -0.714135671   0.000000000   1.066146605

ATOMIC_POSITIONS (crystal)
Ga            0.5000000000        0.0000000000       -0.0000000000
Ga            0.5000000000        0.5000000000        0.5000000000
Na            0.0000000000        0.0000000000        0.5000000000
Na            0.0000000000        0.5000000000        0.0000000000
Na            0.2444251010        0.9764239911        0.2456583771
Na            0.7555748990        0.0235760089        0.7543416229
Na            0.7555748990        0.4764239911        0.2543416229
Na            0.2444251010        0.5235760089        0.7456583771
H             0.3910260399        0.7784560945        0.5474368904
H             0.6089739601        0.2215439055        0.4525631096
H             0.6089739601        0.2784560945        0.9525631096
H             0.3910260399        0.7215439055        0.0474368904
H             0.7434944897        0.8406359343        0.9654417967
H             0.2565055103        0.1593640657        0.0345582033
H             0.2565055103        0.3406359343        0.5345582033
H             0.7434944897        0.6593640657        0.4654417967
H             0.2033060919        0.9608364352        0.7805636487
H             0.7966939081        0.0391635648        0.2194363513
H             0.7966939081        0.4608364352        0.7194363513
H             0.2033060919        0.5391635648        0.2805636487

     Writing config-only to output data dir ./na3gah6.save/
     NEW-OLD atomic charge density approx. for the potential
     extrapolated charge   92.35683, renormalised to   92.00000

     Writing all to output data dir ./na3gah6.save/

     General routines

     Parallel routines

   This run was terminated on:  14:11:14   1Dec2023

   JOB DONE.
Job execution finished at: Fri Dec  1 14:11:15 IST 2023