     Program PWSCF v.7.1 starts on  1Dec2023 at  9:44:12

     Reading input from na3gah6.in

     Current dimensions of program PWSCF are:
     Max number of different atomic species (ntypx) = 10
     Max number of k-points (npk) =  40000
     Max angular momentum in pseudopotentials (lmaxx) =  4
     file Ga.pbe-dn-kjpaw_psl.1.0.0.UPF: wavefunction(s)  4S renormalized

     IMPORTANT: XC functional enforced from input :
     Exchange-correlation= PBE
                           (   1   4   3   4   0   0   0)
     Any further DFT definition will be discarded
     Please, verify this is what you really want

     Message from routine setup:
     using ibrav=0 with symmetry is DISCOURAGED, use correct ibrav instead

     K-points division:     npool     =       2
     R & G space division:  proc/nbgrp/npool/nimage =      72
     Subspace diagonalization in iterative solution of the eigenvalue problem:
     a serial algorithm will be used

     Using Slab Decomposition

     bravais-lattice index     =            0
     lattice parameter (alat)  =      14.0952  a.u.
     unit-cell volume          =    4187.6791 (a.u.)^3
     number of atoms/cell      =           20
     number of atomic types    =            3
     number of electrons       =        92.00
     number of Kohn-Sham states=           55
     kinetic-energy cutoff     =      75.0000  Ry
     charge density cutoff     =     375.0000  Ry
     scf convergence threshold =      1.0E-08
     mixing beta               =       0.7000
     number of iterations used =            8  plain     mixing
     energy convergence thresh.=      1.0E-04
     force convergence thresh. =      1.0E-03
     Exchange-correlation= PBE
                           (   1   4   3   4   0   0   0)
     nstep                     =           50

     celldm(1)=  14.095203  celldm(2)=   0.000000  celldm(3)=   0.000000
     celldm(4)=   0.000000  celldm(5)=   0.000000  celldm(6)=   0.000000

     crystal axes: (cart. coord. in units of alat)
               a(1) = (   1.000000   0.000000   0.000000 )
               a(2) = (   0.000000   1.037807   0.000000 )
               a(3) = (  -1.000563   0.000000   1.440930 )

     reciprocal axes: (cart. coord. in units 2 pi/alat)
               b(1) = (  1.000000  0.000000  0.694387 )
               b(2) = (  0.000000  0.963570  0.000000 )
               b(3) = (  0.000000  0.000000  0.693996 )

     PseudoPot. # 1 for H  read from file:
     /home/garima.iitr/.cache/.es/compmat/nagah4/H.pbe-rrkjus_psl.1.0.0.UPF
     MD5 check sum: 3f4114867bd07edc7f1424d066fc1888
     Pseudo is Ultrasoft, Zval =  1.0
     Generated using &quot;atomic&quot; code by A. Dal Corso  v.6.3MaX
     Using radial grid of  929 points,  2 beta functions with:
                l(1) =   0
                l(2) =   0
     Q(r) pseudized with 0 coefficients

     PseudoPot. # 2 for Ga read from file:
     /home/garima.iitr/.cache/.es/compmat/nagah4/Ga.pbe-dn-kjpaw_psl.1.0.0.UPF
     MD5 check sum: 50ce49cbf7e0a40ad8623bf41840a268
     Pseudo is Projector augmented-wave + core cor, Zval = 13.0
     Generated using &quot;atomic&quot; code by A. Dal Corso  v.6.3
     Shape of augmentation charge: PSQ
     Using radial grid of 1205 points,  6 beta functions with:
                l(1) =   0
                l(2) =   0
                l(3) =   1
                l(4) =   1
                l(5) =   2
                l(6) =   2
     Q(r) pseudized with 0 coefficients

     PseudoPot. # 3 for Na read from file:
     /home/garima.iitr/.cache/.es/compmat/nagah4/na_pbe_v1.5.uspp.F.UPF
     MD5 check sum: 44600605ef58000f06b90626533354dc
     Pseudo is Ultrasoft, Zval =  9.0
     Generated by new atomic code, or converted to UPF format
     Using radial grid of  819 points,  5 beta functions with:
                l(1) =   0
                l(2) =   0
                l(3) =   1
                l(4) =   1
                l(5) =   2
     Q(r) pseudized with  8 coefficients,  rinner =    1.250   1.250   1.250
                                                       1.250   1.250

     atomic species   valence    mass     pseudopotential
        H              1.00     1.00750     H ( 1.00)
        Ga            13.00    69.72300     Ga( 1.00)
        Na             9.00    22.98900     Na( 1.00)

      4 Sym. Ops., with inversion, found ( 2 have fractional translation)

   Cartesian axes

     site n.     atom                  positions (alat units)
         1           Ga  tau(   1) = (   0.5000000   0.0000000   0.0000000  )
         2           Ga  tau(   2) = (  -0.0002816   0.5189036   0.7204648  )
         3           Na  tau(   3) = (  -0.5002816   0.0000000   0.7204648  )
         4           Na  tau(   4) = (   0.0000000   0.5189036   0.0000000  )
         5           Na  tau(   5) = (   0.0110312   0.9887397   0.3551459  )
         6           Na  tau(   6) = (  -0.0115944   0.0490675   1.0857837  )
         7           Na  tau(   7) = (   0.4886872   0.4698361   0.3653189  )
         8           Na  tau(   8) = (  -0.4892504   0.5679711   1.0756107  )
         9           H   tau(   9) = (  -0.1616071   0.7962472   0.8112145  )
        10           H   tau(  10) = (   0.1610439   0.2415600   0.6297150  )
        11           H   tau(  11) = (  -0.3392377   0.2773436   1.3501798  )
        12           H   tau(  12) = (   0.3386745   0.7604636   0.0907497  )
        13           H   tau(  13) = (  -0.2285787   0.8616705   1.3783212  )
        14           H   tau(  14) = (   0.2280155   0.1761366   0.0626084  )
        15           H   tau(  15) = (  -0.2722661   0.3427670   0.7830732  )
        16           H   tau(  16) = (   0.2717029   0.6950402   0.6578564  )
        17           H   tau(  17) = (  -0.5999511   0.9883038   1.1286225  )
        18           H   tau(  18) = (   0.5993879   0.0495034   0.3123071  )
        19           H   tau(  19) = (   0.0991063   0.4694002   1.0327719  )
        20           H   tau(  20) = (  -0.0996695   0.5684070   0.4081577  )

     number of k points=    40  Marzari-Vanderbilt smearing, width (Ry)=  0.0050
                       cart. coord. in units 2pi/alat
        k(    1) = (   0.0000000   0.0000000   0.0000000), wk =   0.0185185
        k(    2) = (   0.0000000   0.0000000   0.2313322), wk =   0.0370370
        k(    3) = (   0.0000000   0.1605950   0.0000000), wk =   0.0370370
        k(    4) = (   0.0000000   0.1605950   0.2313322), wk =   0.0740741
        k(    5) = (   0.0000000   0.3211900   0.0000000), wk =   0.0370370
        k(    6) = (   0.0000000   0.3211900   0.2313322), wk =   0.0740741
        k(    7) = (   0.0000000  -0.4817851   0.0000000), wk =   0.0185185
        k(    8) = (   0.0000000  -0.4817851   0.2313322), wk =   0.0370370
        k(    9) = (   0.1666667   0.0000000   0.1157312), wk =   0.0370370
        k(   10) = (   0.1666667   0.0000000   0.3470634), wk =   0.0370370
        k(   11) = (   0.1666667   0.0000000  -0.1156009), wk =   0.0370370
        k(   12) = (   0.1666667   0.1605950   0.1157312), wk =   0.0740741
        k(   13) = (   0.1666667   0.1605950   0.3470634), wk =   0.0740741
        k(   14) = (   0.1666667   0.1605950  -0.1156009), wk =   0.0740741
        k(   15) = (   0.1666667   0.3211900   0.1157312), wk =   0.0740741
        k(   16) = (   0.1666667   0.3211900   0.3470634), wk =   0.0740741
        k(   17) = (   0.1666667   0.3211900  -0.1156009), wk =   0.0740741
        k(   18) = (   0.1666667  -0.4817851   0.1157312), wk =   0.0370370
        k(   19) = (   0.1666667  -0.4817851   0.3470634), wk =   0.0370370
        k(   20) = (   0.1666667  -0.4817851  -0.1156009), wk =   0.0370370
        k(   21) = (   0.3333333   0.0000000   0.2314624), wk =   0.0370370
        k(   22) = (   0.3333333   0.0000000   0.4627946), wk =   0.0370370
        k(   23) = (   0.3333333   0.0000000   0.0001303), wk =   0.0370370
        k(   24) = (   0.3333333   0.1605950   0.2314624), wk =   0.0740741
        k(   25) = (   0.3333333   0.1605950   0.4627946), wk =   0.0740741
        k(   26) = (   0.3333333   0.1605950   0.0001303), wk =   0.0740741
        k(   27) = (   0.3333333   0.3211900   0.2314624), wk =   0.0740741
        k(   28) = (   0.3333333   0.3211900   0.4627946), wk =   0.0740741
        k(   29) = (   0.3333333   0.3211900   0.0001303), wk =   0.0740741
        k(   30) = (   0.3333333  -0.4817851   0.2314624), wk =   0.0370370
        k(   31) = (   0.3333333  -0.4817851   0.4627946), wk =   0.0370370
        k(   32) = (   0.3333333  -0.4817851   0.0001303), wk =   0.0370370
        k(   33) = (  -0.5000000   0.0000000  -0.3471936), wk =   0.0185185
        k(   34) = (  -0.5000000   0.0000000  -0.1158615), wk =   0.0370370
        k(   35) = (  -0.5000000   0.1605950  -0.3471936), wk =   0.0370370
        k(   36) = (  -0.5000000   0.1605950  -0.1158615), wk =   0.0740741
        k(   37) = (  -0.5000000   0.3211900  -0.3471936), wk =   0.0370370
        k(   38) = (  -0.5000000   0.3211900  -0.1158615), wk =   0.0740741
        k(   39) = (  -0.5000000  -0.4817851  -0.3471936), wk =   0.0185185
        k(   40) = (  -0.5000000  -0.4817851  -0.1158615), wk =   0.0370370

     Initial potential from superposition of free atoms

     starting charge      91.9562, renormalised to      92.0000
     Starting wfcs are   60 randomized atomic wfcs
     Checking if some PAW data can be deallocated...

     Self-consistent Calculation

     iteration #  1     ecut=    75.00 Ry     beta= 0.70
     Davidson diagonalization with overlap
     ethr =  1.00E-02,  avg # of iterations =  3.0

     total energy              =   -1140.63012897 Ry
     estimated scf accuracy    <       1.15402840 Ry

[...]

     iteration #  3     ecut=    75.00 Ry     beta= 0.70
     Davidson diagonalization with overlap
     ethr =  2.07E-04,  avg # of iterations =  7.6
     Minimization algorithm failed to find Fermi energy: reverting to bisection
     Possible cause: smearing is larger than the electronic band-gap.

[...]

     iteration #  4     ecut=    75.00 Ry     beta= 0.70
     Davidson diagonalization with overlap
     c_bands:  2 eigenvalues not converged
     c_bands:  1 eigenvalues not converged
     c_bands:  1 eigenvalues not converged
     ethr =  4.35E-05,  avg # of iterations =  8.9

[...]

     iteration #  6     ecut=    75.00 Ry     beta= 0.70
     Davidson diagonalization with overlap
     c_bands:  2 eigenvalues not converged
     c_bands:  1 eigenvalues not converged
     ethr =  1.83E-06,  avg # of iterations = 10.7
     Minimization algorithm failed to find Fermi energy: reverting to bisection
     Possible cause: smearing is larger than the electronic band-gap.

[...]

     End of self-consistent calculation

          k = 0.0000 0.0000 0.0000 ( 45919 PWs)   bands (ev):

   -54.6811 -54.6811 -54.6811 -54.6811 -54.4211 -54.4211 -26.5859 -26.5858
   -26.5858 -26.5857 -26.5840 -26.5840 -26.5840 -26.5840 -26.5735 -26.5735
   -26.5735 -26.5735 -26.3278 -26.3278 -26.3248 -26.3248 -26.3207 -26.3207
   -16.1310 -16.1310 -16.1302 -16.1302 -16.1296 -16.1296 -16.1248 -16.1248
   -16.1222 -16.1222  -6.3803  -6.2817  -3.2907  -3.0710  -3.0356  -2.8470
    -2.8300  -2.7819  -2.5285  -2.1738  -2.1342  -2.0158  -1.9078  -0.7950
     0.8935   1.4676   1.5076   1.7978   2.0052   2.0430   2.0992

[...]

          k =-0.5000 0.0000-0.3472 ( 45920 PWs)   bands (ev):

[...]

     the Fermi energy is    -1.9682 ev

!    total energy              =   -1140.93662537 Ry
     estimated scf accuracy    <          2.6E-09 Ry
     smearing contrib. (-TS)   =       0.00202657 Ry
     internal energy E=F+TS    =   -1140.93865194 Ry

     The total energy is F=E-TS. E is the sum of the following terms:
     one-electron contribution =    -917.91119424 Ry
     hartree contribution      =     475.67710376 Ry
     xc contribution           =    -168.77417252 Ry
     ewald contribution        =    -307.84378073 Ry
     one-center paw contrib.   =    -222.08660820 Ry

     convergence has been achieved in  14 iterations

     Forces acting on atoms (cartesian axes, Ry/au):

     atom    1 type  2   force =     0.00000000    0.00000000    0.00000000
     atom    2 type  2   force =     0.00000000    0.00000000    0.00000000
     atom    3 type  3   force =     0.00000000    0.00000000    0.00000000
     atom    4 type  3   force =     0.00000000    0.00000000    0.00000000
     atom    5 type  3   force =    -0.00083813    0.00069133   -0.00154823
     atom    6 type  3   force =     0.00083813   -0.00069133    0.00154823
     atom    7 type  3   force =     0.00083813    0.00069133    0.00154823
     atom    8 type  3   force =    -0.00083813   -0.00069133   -0.00154823
     atom    9 type  1   force =     0.01159778   -0.01975172   -0.00420783
     atom   10 type  1   force =    -0.01159778    0.01975172    0.00420783
     atom   11 type  1   force =    -0.01159778   -0.01975172    0.00420783
     atom   12 type  1   force =     0.01159778    0.01975172   -0.00420783
     atom   13 type  1   force =    -0.02218081    0.01537017    0.00368524
     atom   14 type  1   force =     0.02218081   -0.01537017   -0.00368524
     atom   15 type  1   force =     0.02218081    0.01537017   -0.00368524
     atom   16 type  1   force =    -0.02218081   -0.01537017    0.00368524
     atom   17 type  1   force =     0.00680615    0.00194499    0.02447612
     atom   18 type  1   force =    -0.00680615   -0.00194499   -0.02447612
     atom   19 type  1   force =    -0.00680615    0.00194499   -0.02447612
     atom   20 type  1   force =     0.00680615   -0.00194499    0.02447612

     Total force =     0.088021     Total SCF correction =     0.000003

     Computing stress (Cartesian axis) and pressure

          total   stress  (Ry/bohr**3)                   (kbar)     P=      -54.57
  -0.00037644   0.00000000   0.00000470          -55.38        0.00        0.69
   0.00000000  -0.00037640   0.00000000            0.00      -55.37        0.00
   0.00000470   0.00000000  -0.00036006            0.69        0.00      -52.97

     BFGS Geometry Optimization
     Energy error            =      0.0E+00 Ry
     Gradient error          =      2.4E-02 Ry/Bohr

     number of scf cycles    =   1
     number of bfgs steps    =   0

     energy             new  =   -1140.9366253662 Ry

     new trust radius        =       0.0272362154 bohr
     new conv_thr            =       0.0000000100 Ry

ATOMIC_POSITIONS (crystal)
Ga            0.5000000000        0.0000000000        0.0000000000
Ga            0.5000000000        0.5000000000        0.5000000000
Na            0.0000000000        0.0000000000        0.5000000000
Na            0.0000000000        0.5000000000        0.0000000000
Na            0.2575042658        0.9527672604        0.2463937710
Na            0.7424957342        0.0472327396        0.7536062290
Na            0.7424957342        0.4527672604        0.2536062290
Na            0.2575042658        0.5472327396        0.7463937710
H             0.4023055230        0.7658897414        0.5627728219
H             0.5976944770        0.2341102586        0.4372271781
H             0.5976944770        0.2658897414        0.9372271781
H             0.4023055230        0.7341102586        0.0627728219
H             0.7271179078        0.8313307292        0.9567314479
H             0.2728820922        0.1686692708        0.0432685521
H             0.2728820922        0.3313307292        0.5432685521
H             0.7271179078        0.6686692708        0.4567314479
H             0.1854386634        0.9524329626        0.7844651150
H             0.8145613366        0.0475670374        0.2155348850
H             0.8145613366        0.4524329626        0.7155348850
H             0.1854386634        0.5475670374        0.2844651150

     Writing config-only to output data dir ./na3gah6.save/
     NEW-OLD atomic charge density approx. for the potential
     Minimization algorithm failed to find Fermi energy: reverting to bisection
     Possible cause: smearing is larger than the electronic band-gap.

[...]

     Energy error            =      7.8E-03 Ry
     Gradient error          =      2.5E-02 Ry/Bohr

[...]

     energy             old  =   -1140.9366253662 Ry
     energy             new  =   -1140.9444165253 Ry

     CASE: energy            _new < energy            _old

     WARNING: bfgs curvature condition failed, Theta= 0.791
     new trust radius        =       0.0299598369 bohr
     new conv_thr            =       0.0000000025 Ry

[...]

     WARNING: bfgs curvature condition failed, Theta= 0.634
     uphill step: resetting bfgs history

[...]

     WARNING: integrated charge=    92.00527553, expected=    92.00000000

[...]

     iteration #  7     ecut=    75.00 Ry     beta= 0.70
     Davidson diagonalization with overlap
     c_bands:  1 eigenvalues not converged
     ethr =  2.03E-10,  avg # of iterations =  8.7
     Minimization algorithm failed to find Fermi energy: reverting to bisection
     Possible cause: smearing is larger than the electronic band-gap.

[...]

     Threshold (ethr) on eigenvalues was too large:
     Diagonalizing with lowered threshold

     Davidson diagonalization with overlap
     ethr =  9.28E-08,  avg # of iterations =  3.8
     Minimization algorithm failed to find Fermi energy: reverting to bisection
     Possible cause: smearing is larger than the electronic band-gap.

[...]

     iteration #  9     ecut=    75.00 Ry     beta= 0.70
     Davidson diagonalization with overlap
     ethr =  1.03E-12,  avg # of iterations =  5.3
     Minimization algorithm failed to find Fermi energy: reverting to bisection
     Possible cause: smearing is larger than the electronic band-gap.

[...]

     Writing config-only to output data dir ./na3gah6.save/
     NEW-OLD atomic charge density approx. for the potential
     Minimization algorithm failed to find Fermi energy: reverting to bisection
     Possible cause: smearing is larger than the electronic band-gap.

[...]

     Writing config-only to output data dir ./na3gah6.save/
     NEW-OLD atomic charge density approx. for the potential
     extrapolated charge   92.00347, renormalised to   92.00000

[...]

     WARNING: integrated charge=    92.00021549, expected=    92.00000000

[...]

     Writing config-only to output data dir ./na3gah6.save/
     NEW-OLD atomic charge density approx. for the potential
     extrapolated charge   92.00022, renormalised to   92.00000

[...]

     Writing config-only to output data dir ./na3gah6.save/
     NEW-OLD atomic charge density approx. for the potential

[...]

     negative rho (up, down):  1.317E-04 0.000E+00

[...]

     WARNING: bfgs curvature condition failed, Theta= 0.990
     new trust radius        =       0.0402106400 bohr
     new conv_thr            =       0.0000000014 Ry

[...]

     negative rho (up, down):  4.414E-04 0.000E+00

[...]

     iteration #  2     ecut=    75.00 Ry     beta= 0.70
     Davidson diagonalization with overlap
     c_bands:  1 eigenvalues not converged
     ethr =  4.35E-06,  avg # of iterations =  5.9

[...]

     new trust radius        =       0.1067666121 bohr
     new conv_thr            =       0.0000000019 Ry

[...]

     Self-consistent Calculation

[...]

     total energy              =   -1141.47358166 Ry
     estimated scf accuracy    <       0.00000002 Ry

     iteration #  8     ecut=    75.00 Ry     beta= 0.70
     Davidson diagonalization with overlap
     ethr =  1.07E-11,  avg # of iterations =  4.0

     End of self-consistent calculation

[...]

          k = 0.3333-0.4818 0.0001 ( 45916 PWs)   bands (ev):

[...]

          k =-0.5000-0.4818-0.1159 ( 45914 PWs)   bands (ev):

   -54.2172 -54.2172 -53.2984 -53.2984 -53.2983 -53.2983 -26.1678 -26.1678
   -26.1567 -26.1567 -26.0531 -26.0531 -25.2560 -25.2560 -25.2557 -25.2557
   -25.2052 -25.2052 -25.2047 -25.2047 -25.1869 -25.1869 -25.1836 -25.1836
   -16.2737 -16.2737 -16.1053 -16.1053 -16.0531 -16.0531 -16.0481 -16.0481
   -15.8662 -15.8662  -8.2551  -8.2551  -5.2818  -5.2818  -3.7619  -3.7619
    -2.7834  -2.7834  -2.6214  -2.6214  -1.7250  -1.7250   0.9906   0.9906
     1.2546   1.2546   1.4832   1.4832   1.7619   1.7619   2.4811

     the Fermi energy is    -0.2010 ev

!    total energy              =   -1141.47358166 Ry
     estimated scf accuracy    <          1.3E-09 Ry
     smearing contrib. (-TS)   =      -0.00000000 Ry
     internal energy E=F+TS    =   -1141.47358166 Ry

     The total energy is F=E-TS. E is the sum of the following terms:
     one-electron contribution =   -1002.83475249 Ry
     hartree contribution      =     520.66368191 Ry
     xc contribution           =    -170.15618299 Ry
     ewald contribution        =    -266.58143833 Ry
     one-center paw contrib.   =    -222.56488977 Ry

     convergence has been achieved in   8 iterations

     Forces acting on atoms (cartesian axes, Ry/au):

     atom    1 type  2   force =     0.00000000    0.00000000    0.00000000
     atom    2 type  2   force =     0.00000000    0.00000000    0.00000000
     atom    3 type  3   force =     0.00000000    0.00000000    0.00000000
     atom    4 type  3   force =     0.00000000    0.00000000    0.00000000
     atom    5 type  3   force =     0.00309986    0.00268346   -0.00093425
     atom    6 type  3   force =    -0.00309986   -0.00268346    0.00093425
     atom    7 type  3   force =    -0.00309986    0.00268346    0.00093425
     atom    8 type  3   force =     0.00309986   -0.00268346   -0.00093425
     atom    9 type  1   force =    -0.00845130    0.00996130   -0.00182289
     atom   10 type  1   force =     0.00845130   -0.00996130    0.00182289
     atom   11 type  1   force =     0.00845130    0.00996130    0.00182289
     atom   12 type  1   force =    -0.00845130   -0.00996130   -0.00182289
     atom   13 type  1   force =     0.01697495   -0.01884979   -0.01053286
     atom   14 type  1   force =    -0.01697495    0.01884979    0.01053286
     atom   15 type  1   force =    -0.01697495   -0.01884979    0.01053286
     atom   16 type  1   force =     0.01697495    0.01884979   -0.01053286
     atom   17 type  1   force =     0.01228647    0.00559321   -0.00036815
     atom   18 type  1   force =    -0.01228647   -0.00559321    0.00036815
     atom   19 type  1   force =    -0.01228647    0.00559321    0.00036815
     atom   20 type  1   force =     0.01228647   -0.00559321   -0.00036815

     Total force =     0.067185     Total SCF correction =     0.000021

     Computing stress (Cartesian axis) and pressure

          total   stress  (Ry/bohr**3)                   (kbar)     P=      -13.94
  -0.00010011   0.00000000  -0.00009340          -14.73        0.00      -13.74
   0.00000000  -0.00009063   0.00000000            0.00      -13.33        0.00
  -0.00009340   0.00000000  -0.00009364          -13.74        0.00      -13.78

     Energy error            =      2.5E-03 Ry
     Gradient error          =      1.9E-02 Ry/Bohr

     number of scf cycles    =  50
     number of bfgs steps    =  49

     energy             old  =   -1141.4710334301 Ry
     energy             new  =   -1141.4735816623 Ry

     CASE: energy            _new < energy            _old

     new trust radius        =       0.0697833551 bohr

     The maximum number of steps has been reached.

     End of BFGS Geometry Optimization

ATOMIC_POSITIONS (crystal)
Ga            0.5000000000        0.0000000000        0.0000000000
Ga            0.5000000000        0.5000000000        0.5000000000
Na           -0.0000000000        0.0000000000        0.5000000000
Na            0.0000000000        0.5000000000        0.0000000000
Na            0.2698437578        0.8589447414        0.3576009595
Na            0.7301562422        0.1410552586        0.6423990405
Na            0.7301562422        0.3589447414        0.1423990405
Na            0.2698437578        0.6410552586        0.8576009595
H             0.3375176526        0.8530816440        0.5396757471
H             0.6624823474        0.1469183560        0.4603242529
H             0.6624823474        0.3530816440        0.9603242529
H             0.3375176526        0.6469183560        0.0396757471
H             0.6666520995        0.8954879063        0.9947078768
H             0.3333479005        0.1045120937        0.0052921232
H             0.3333479005        0.3954879063        0.5052921232
H             0.6666520995        0.6045120937        0.4947078768
H             0.2219905859        0.9145000132        0.8323668933
H             0.7780094141        0.0854999868        0.1676331067
H             0.7780094141        0.4145000132        0.6676331067
H             0.2219905859        0.5854999868        0.3323668933

     Writing config-only to output data dir ./na3gah6.save/
     NEW-OLD atomic charge density approx. for the potential

     Writing all to output data dir ./na3gah6.save/

     General routines

     Parallel routines

   This run was terminated on:  10:25:15   1Dec2023

   JOB DONE.
Job execution finished at: Fri Dec  1 10:25:16 IST 2023