     Program PWSCF v.7.1 starts on 31Oct2023 at 19:16:14

     Reading input from na5alh14.in

     Current dimensions of program PWSCF are:
     Max number of different atomic species (ntypx) = 10
     Max number of k-points (npk) =  40000
     Max angular momentum in pseudopotentials (lmaxx) =  4
     file Al.pbe-n-kjpaw_psl.1.0.0.UPF: wavefunction(s)  3S 3P renormalized

     IMPORTANT: XC functional enforced from input :
     Exchange-correlation= PBE
                           (   1   4   3   4   0   0   0)
     Any further DFT definition will be discarded
     Please, verify this is what you really want

     Message from routine setup:
     using ibrav=0 with symmetry is DISCOURAGED, use correct ibrav instead

     K-points division:     npool     =       3
     R & G space division:  proc/nbgrp/npool/nimage =      48
     Subspace diagonalization in iterative solution of the eigenvalue problem:
     a serial algorithm will be used

     Using Slab Decomposition

     bravais-lattice index     =            0
     lattice parameter (alat)  =      12.6114  a.u.
     unit-cell volume          =    3067.3055 (a.u.)^3
     number of atoms/cell      =           44
     number of atomic types    =            3
     number of electrons       =       136.00
     number of Kohn-Sham states=           82
     kinetic-energy cutoff     =      75.0000  Ry
     charge density cutoff     =     375.0000  Ry
     scf convergence threshold =      1.0E-08
     mixing beta               =       0.7000
     number of iterations used =            8  plain     mixing
     energy convergence thresh.=      1.0E-04
     force convergence thresh. =      1.0E-03
     Exchange-correlation= PBE
                           (   1   4   3   4   0   0   0)
     nstep                     =           50

     celldm(1)=  12.611352  celldm(2)=   0.000000  celldm(3)=   0.000000
     celldm(4)=   0.000000  celldm(5)=   0.000000  celldm(6)=   0.000000

     crystal axes: (cart. coord. in units of alat)
               a(1) = (   1.000000   0.000000   0.000000 )
               a(2) = (   0.000000   1.000000   0.000000 )
               a(3) = (   0.000000   0.000000   1.529227 )

     reciprocal axes: (cart. coord. in units 2 pi/alat)
               b(1) = (  1.000000  0.000000  0.000000 )
               b(2) = (  0.000000  1.000000  0.000000 )
               b(3) = (  0.000000  0.000000  0.653925 )

     PseudoPot. # 1 for Al read from file:
     /home/garima.iitr/.cache/.es/compmat/na5alh14/Al.pbe-n-kjpaw_psl.1.0.0.UPF
     MD5 check sum: 502b6b27b9c6270cab5dd1084b96fa6d
     Pseudo is Projector augmented-wave + core cor, Zval =  3.0
     Generated using &quot;atomic&quot; code by A. Dal Corso  v.6.3
     Shape of augmentation charge: PSQ
     Using radial grid of 1135 points,  6 beta functions with:
                l(1) =   0
                l(2) =   0
                l(3) =   1
                l(4) =   1
                l(5) =   2
                l(6) =   2
     Q(r) pseudized with 0 coefficients

     PseudoPot. # 2 for Na read from file:
     /home/garima.iitr/.cache/.es/compmat/na5alh14/na_pbe_v1.5.uspp.F.UPF
     MD5 check sum: 44600605ef58000f06b90626533354dc
     Pseudo is Ultrasoft, Zval =  9.0
     Generated by new atomic code, or converted to UPF format
     Using radial grid of  819 points,  5 beta functions with:
                l(1) =   0
                l(2) =   0
                l(3) =   1
                l(4) =   1
                l(5) =   2
     Q(r) pseudized with  8 coefficients,  rinner =    1.250   1.250   1.250
                                                       1.250   1.250

     PseudoPot. # 3 for H  read from file:
     /home/garima.iitr/.cache/.es/compmat/na5alh14/H.pbe-rrkjus_psl.1.0.0.UPF
     MD5 check sum: 3f4114867bd07edc7f1424d066fc1888
     Pseudo is Ultrasoft, Zval =  1.0
     Generated using &quot;atomic&quot; code by A. Dal Corso  v.6.3MaX
     Using radial grid of  929 points,  2 beta functions with:
                l(1) =   0
                l(2) =   0
     Q(r) pseudized with 0 coefficients

     atomic species   valence    mass     pseudopotential
        Al             3.00    26.98100     Al( 1.00)
        Na             9.00    22.98900     Na( 1.00)
        H              1.00     1.00750     H ( 1.00)

     16 Sym. Ops., with inversion, found ( 8 have fractional translation)

   Cartesian axes

     site n.     atom                  positions (alat units)
         1           Al  tau(   1) = (   0.0000000   0.0000000   0.7646137  )
         2           Al  tau(   2) = (   0.5000000   0.5000000   0.0000000  )
         3           Al  tau(   3) = (   0.0000000   0.5000000   0.0000000  )
         4           Al  tau(   4) = (   0.5000000   0.0000000   0.7646137  )
         5           Al  tau(   5) = (   0.0000000   0.5000000   0.7646137  )
         6           Al  tau(   6) = (   0.5000000   0.0000000   0.0000000  )
         7           Na  tau(   7) = (   0.0000000   0.0000000   0.0000000  )
         8           Na  tau(   8) = (   0.5000000   0.5000000   0.7646137  )
         9           Na  tau(   9) = (   0.7873500   0.2873500   0.3823069  )
        10           Na  tau(  10) = (   0.7126500   0.7873500   0.3823069  )
        11           Na  tau(  11) = (   0.2126500   0.7126500   0.3823069  )
        12           Na  tau(  12) = (   0.7126500   0.7873500   1.1469206  )
        13           Na  tau(  13) = (   0.2126500   0.7126500   1.1469206  )
        14           Na  tau(  14) = (   0.2873500   0.2126500   0.3823069  )
        15           Na  tau(  15) = (   0.2873500   0.2126500   1.1469206  )
        16           Na  tau(  16) = (   0.7873500   0.2873500   1.1469206  )
        17           H   tau(  17) = (   0.0438000   0.3200500   0.1796995  )
        18           H   tau(  18) = (   0.4562000   0.8200500   0.5849142  )
        19           H   tau(  19) = (   0.1799500   0.4562000   0.5849142  )
        20           H   tau(  20) = (   0.4562000   0.8200500   0.9443133  )
        21           H   tau(  21) = (   0.1799500   0.4562000   0.9443133  )
        22           H   tau(  22) = (   0.9562000   0.6799500   0.1796995  )
        23           H   tau(  23) = (   0.3200500   0.9562000   0.1796995  )
        24           H   tau(  24) = (   0.9562000   0.6799500   1.3495280  )
        25           H   tau(  25) = (   0.3200500   0.9562000   1.3495280  )
        26           H   tau(  26) = (   0.6799500   0.0438000   0.1796995  )
        27           H   tau(  27) = (   0.0438000   0.3200500   1.3495280  )
        28           H   tau(  28) = (   0.6799500   0.0438000   1.3495280  )
        29           H   tau(  29) = (   0.5438000   0.1799500   0.5849142  )
        30           H   tau(  30) = (   0.8200500   0.5438000   0.5849142  )
        31           H   tau(  31) = (   0.5438000   0.1799500   0.9443133  )
        32           H   tau(  32) = (   0.8200500   0.5438000   0.9443133  )
        33           H   tau(  33) = (   0.0000000   0.0000000   0.5038652  )
        34           H   tau(  34) = (   0.5000000   0.5000000   0.2607486  )
        35           H   tau(  35) = (   0.5000000   0.5000000   1.2684789  )
        36           H   tau(  36) = (   0.0000000   0.0000000   1.0253623  )
        37           H   tau(  37) = (   0.2523700   0.5751200   0.0000000  )
        38           H   tau(  38) = (   0.2476300   0.0751200   0.7646137  )
        39           H   tau(  39) = (   0.9248800   0.2476300   0.7646137  )
        40           H   tau(  40) = (   0.7476300   0.4248800   0.0000000  )
        41           H   tau(  41) = (   0.5751200   0.7476300   0.0000000  )
        42           H   tau(  42) = (   0.4248800   0.2523700   0.0000000  )
        43           H   tau(  43) = (   0.7523700   0.9248800   0.7646137  )
        44           H   tau(  44) = (   0.0751200   0.7523700   0.7646137  )

     number of k points=    30  Marzari-Vanderbilt smearing, width (Ry)=  0.0050
                       cart. coord. in units 2pi/alat
        k(    1) = (   0.0000000   0.0000000   0.0000000), wk =   0.0138889
        k(    2) = (   0.0000000   0.0000000   0.1634812), wk =   0.0277778
        k(    3) = (   0.0000000   0.0000000  -0.3269625), wk =   0.0138889
        k(    4) = (   0.0000000   0.1666667   0.0000000), wk =   0.0555556
        k(    5) = (   0.0000000   0.1666667   0.1634812), wk =   0.1111111
        k(    6) = (   0.0000000   0.1666667  -0.3269625), wk =   0.0555556
        k(    7) = (   0.0000000   0.3333333   0.0000000), wk =   0.0555556
        k(    8) = (   0.0000000   0.3333333   0.1634812), wk =   0.1111111
        k(    9) = (   0.0000000   0.3333333  -0.3269625), wk =   0.0555556
        k(   10) = (   0.0000000  -0.5000000   0.0000000), wk =   0.0277778
        k(   11) = (   0.0000000  -0.5000000   0.1634812), wk =   0.0555556
        k(   12) = (   0.0000000  -0.5000000  -0.3269625), wk =   0.0277778
        k(   13) = (   0.1666667   0.1666667   0.0000000), wk =   0.0555556
        k(   14) = (   0.1666667   0.1666667   0.1634812), wk =   0.1111111
        k(   15) = (   0.1666667   0.1666667  -0.3269625), wk =   0.0555556
        k(   16) = (   0.1666667   0.3333333   0.0000000), wk =   0.1111111
        k(   17) = (   0.1666667   0.3333333   0.1634812), wk =   0.2222222
        k(   18) = (   0.1666667   0.3333333  -0.3269625), wk =   0.1111111
        k(   19) = (   0.1666667  -0.5000000   0.0000000), wk =   0.0555556
        k(   20) = (   0.1666667  -0.5000000   0.1634812), wk =   0.1111111
        k(   21) = (   0.1666667  -0.5000000  -0.3269625), wk =   0.0555556
        k(   22) = (   0.3333333   0.3333333   0.0000000), wk =   0.0555556
        k(   23) = (   0.3333333   0.3333333   0.1634812), wk =   0.1111111
        k(   24) = (   0.3333333   0.3333333  -0.3269625), wk =   0.0555556
        k(   25) = (   0.3333333  -0.5000000   0.0000000), wk =   0.0555556
        k(   26) = (   0.3333333  -0.5000000   0.1634812), wk =   0.1111111
        k(   27) = (   0.3333333  -0.5000000  -0.3269625), wk =   0.0555556
        k(   28) = (  -0.5000000  -0.5000000   0.0000000), wk =   0.0138889
        k(   29) = (  -0.5000000  -0.5000000   0.1634812), wk =   0.0277778
        k(   30) = (  -0.5000000  -0.5000000  -0.3269625), wk =   0.0138889

     Initial potential from superposition of free atoms

     starting charge     135.9231, renormalised to     136.0000
     Starting wfcs are  102 randomized atomic wfcs
     Checking if some PAW data can be deallocated...

     Self-consistent Calculation

     iteration #  1     ecut=    75.00 Ry     beta= 0.70
     Davidson diagonalization with overlap
     ethr =  1.00E-02,  avg # of iterations =  5.4

     total energy              =   -1223.45200724 Ry
     estimated scf accuracy    <       1.96900079 Ry

[...]

     End of self-consistent calculation

          k = 0.0000 0.0000 0.0000 ( 33673 PWs)   bands (ev):

   -49.2091 -49.2091 -48.9020 -48.9020 -48.8992 -48.8992 -48.8992 -48.8992
   -48.8966 -48.8966 -21.1567 -21.1541 -21.1201 -21.1201 -21.1188 -21.1188
   -20.8753 -20.8741 -20.8611 -20.8611 -20.8610 -20.8610 -20.8609 -20.8606
[...]
     new conv_thr            =       0.0000000100 Ry

ATOMIC_POSITIONS (crystal)
Al            0.0000000000        0.0000000000        0.5000000000
Al            0.5000000000        0.5000000000        0.0000000000
Al            0.0000000000        0.5000000000        0.0000000000
Al            0.5000000000        0.0000000000        0.5000000000
Al            0.0000000000        0.5000000000        0.5000000000
Al            0.5000000000        0.0000000000        0.0000000000
Na            0.0000000000        0.0000000000        0.0000000000
Na            0.5000000000        0.5000000000        0.5000000000
Na            0.7873037134        0.2873037134        0.2500000000
Na            0.7126962866        0.7873037134        0.2500000000
Na            0.2126962866        0.7126962866        0.2500000000
Na            0.7126962866        0.7873037134        0.7500000000
Na            0.2126962866        0.7126962866        0.7500000000
Na            0.2873037134        0.2126962866        0.2500000000
Na            0.2873037134        0.2126962866        0.7500000000
Na            0.7873037134        0.2873037134        0.7500000000
H             0.0438802711        0.3199025611        0.1176345131
H             0.4561197289        0.8199025611        0.3823654869
H             0.1800974389        0.4561197289        0.3823654869
H             0.4561197289        0.8199025611        0.6176345131
H             0.1800974389        0.4561197289        0.6176345131
H             0.9561197289        0.6800974389        0.1176345131
H             0.3199025611        0.9561197289        0.1176345131
H             0.9561197289        0.6800974389        0.8823654869
H             0.3199025611        0.9561197289        0.8823654869
H             0.6800974389        0.0438802711        0.1176345131
H             0.0438802711        0.3199025611        0.8823654869
H             0.6800974389        0.0438802711        0.8823654869
H             0.5438802711        0.1800974389        0.3823654869
H             0.8199025611        0.5438802711        0.3823654869
H             0.5438802711        0.1800974389        0.6176345131
H             0.8199025611        0.5438802711        0.6176345131
H             0.0000000000        0.0000000000        0.3293578433
H             0.5000000000        0.5000000000        0.1706421567
H             0.5000000000        0.5000000000        0.8293578433
H             0.0000000000        0.0000000000        0.6706421567
H             0.2523178308        0.5753023980       -0.0000000000
H             0.2476821692        0.0753023980        0.5000000000
H             0.9246976020        0.2476821692        0.5000000000
H             0.7476821692        0.4246976020       -0.0000000000
H             0.5753023980        0.7476821692        0.0000000000
H             0.4246976020        0.2523178308        0.0000000000
H             0.7523178308        0.9246976020        0.5000000000
H             0.0753023980        0.7523178308        0.5000000000

     Writing config-only to output data dir temp/na5alh14.save/
     NEW-OLD atomic charge density approx. for the potential

[...]

     Threshold (ethr) on eigenvalues was too large:
     Diagonalizing with lowered threshold

     Davidson diagonalization with overlap
     ethr =  1.48E-08,  avg # of iterations =  2.1

[...]

     Energy error            =      2.2E-04 Ry
     Gradient error          =      2.2E-03 Ry/Bohr

[...]

     energy             old  =   -1223.6395873000 Ry
     energy             new  =   -1223.6398088873 Ry

     CASE: energy            _new < energy            _old

     WARNING: bfgs curvature condition failed, Theta= 0.955
     new trust radius        =       0.0035214594 bohr
     new conv_thr            =       0.0000000002 Ry

[...]

     number of scf cycles    =   7
     number of bfgs steps    =   6

     energy             old  =   -1223.6404551064 Ry
     energy             new  =   -1223.6405080225 Ry

     CASE: energy            _new < energy            _old

     new trust radius        =       0.0076769693 bohr
     new conv_thr            =            1.0E-10 Ry

ATOMIC_POSITIONS (crystal)
Al            0.0000000000        0.0000000000        0.5000000000
Al            0.5000000000        0.5000000000       -0.0000000000
Al            0.0000000000        0.5000000000        0.0000000000
Al            0.5000000000        0.0000000000        0.5000000000
Al            0.0000000000        0.5000000000        0.5000000000
Al            0.5000000000        0.0000000000       -0.0000000000
Na            0.0000000000        0.0000000000       -0.0000000000
Na            0.5000000000        0.5000000000        0.5000000000
Na            0.7867926915        0.2867926915        0.2500000000
Na            0.7132073085        0.7867926915        0.2500000000
Na            0.2132073085        0.7132073085        0.2500000000
Na            0.7132073085        0.7867926915        0.7500000000
Na            0.2132073085        0.7132073085        0.7500000000
Na            0.2867926915        0.2132073085        0.2500000000
Na            0.2867926915        0.2132073085        0.7500000000
Na            0.7867926915        0.2867926915        0.7500000000
H             0.0448119173        0.3192088292        0.1184175414
H             0.4551880827        0.8192088292        0.3815824586
H             0.1807911708        0.4551880827        0.3815824586
H             0.4551880827        0.8192088292        0.6184175414
H             0.1807911708        0.4551880827        0.6184175414
H             0.9551880827        0.6807911708        0.1184175414
H             0.3192088292        0.9551880827        0.1184175414
H             0.9551880827        0.6807911708        0.8815824586
H             0.3192088292        0.9551880827        0.8815824586
H             0.6807911708        0.0448119173        0.1184175414
H             0.0448119173        0.3192088292        0.8815824586
H             0.6807911708        0.0448119173        0.8815824586
H             0.5448119173        0.1807911708        0.3815824586
H             0.8192088292        0.5448119173        0.3815824586
H             0.5448119173        0.1807911708        0.6184175414
H             0.8192088292        0.5448119173        0.6184175414
H             0.0000000000        0.0000000000        0.3285153115
H             0.5000000000        0.5000000000        0.1714846885
H             0.5000000000        0.5000000000        0.8285153115
H             0.0000000000        0.0000000000        0.6714846885
H             0.2520913161        0.5781773156       -0.0000000000
H             0.2479086839        0.0781773156        0.5000000000
H             0.9218226844        0.2479086839        0.5000000000
H             0.7479086839        0.4218226844       -0.0000000000
H             0.5781773156        0.7479086839       -0.0000000000
H             0.4218226844        0.2520913161       -0.0000000000
H             0.7520913161        0.9218226844        0.5000000000
H             0.0781773156        0.7520913161        0.5000000000

     Writing config-only to output data dir temp/na5alh14.save/
     NEW-OLD atomic charge density approx. for the potential

     Self-consistent Calculation

[...]

     Threshold (ethr) on eigenvalues was too large:
     Diagonalizing with lowered threshold

     Davidson diagonalization with overlap
     ethr =  1.37E-08,  avg # of iterations =  2.7

[...]

     total energy              =   -1223.64057149 Ry
     estimated scf accuracy    <          2.0E-10 Ry

     iteration #  6     ecut=    75.00 Ry     beta= 0.70
     Davidson diagonalization with overlap
     ethr =  1.48E-13,  avg # of iterations =  2.2

     End of self-consistent calculation

[...]

          k = 0.3333-0.5000-0.3270 ( 33628 PWs)   bands (ev):

[...]

          k =-0.5000-0.5000-0.3270 ( 33616 PWs)   bands (ev):

   -49.1965 -49.1965 -48.8770 -48.8770 -48.8770 -48.8770 -48.8769 -48.8769
   -48.8769 -48.8769 -21.1421 -21.1421 -21.1073 -21.1073 -21.1073 -21.1073
   -20.8292 -20.8292 -20.8290 -20.8290 -20.8243 -20.8243 -20.8243 -20.8243
   -20.8084 -20.8084 -20.8084 -20.8084 -20.8018 -20.8018 -20.8017 -20.8017
   -20.7937 -20.7937 -20.7937 -20.7937 -20.7925 -20.7925 -20.7915 -20.7915
    -4.9847  -4.9847  -4.6833  -4.6833  -4.6833  -4.6833  -2.2735  -2.2735
    -1.0632  -1.0632  -1.0632  -1.0632  -0.9997  -0.9997  -0.3391  -0.3391
    -0.1740  -0.1740  -0.0617  -0.0617   0.0866   0.0866   0.0866   0.0866
     1.0216   1.0216   1.7995   1.7995   5.7016   5.7016   5.9058   5.9058
     5.9058   5.9058   6.7135   6.7135   7.3041   7.3041   7.3041   7.3041
     7.5686   7.5686

     the Fermi energy is     3.2874 ev

!    total energy              =   -1223.64057149 Ry
     estimated scf accuracy    <          6.3E-12 Ry
     smearing contrib. (-TS)   =       0.00000000 Ry
     internal energy E=F+TS    =   -1223.64057149 Ry

     The total energy is F=E-TS. E is the sum of the following terms:
     one-electron contribution =    -816.68327906 Ry
     hartree contribution      =     437.54642853 Ry
     xc contribution           =    -179.75818174 Ry
     ewald contribution        =    -456.72753400 Ry
     one-center paw contrib.   =    -208.01800523 Ry

     convergence has been achieved in   6 iterations

     Forces acting on atoms (cartesian axes, Ry/au):

     atom    1 type  1   force =     0.00000000    0.00000000    0.00000000
     atom    2 type  1   force =     0.00000000    0.00000000    0.00000000
     atom    3 type  1   force =     0.00000000    0.00000000   -0.00000000
     atom    4 type  1   force =     0.00000000    0.00000000    0.00000000
     atom    5 type  1   force =     0.00000000    0.00000000    0.00000000
     atom    6 type  1   force =     0.00000000    0.00000000    0.00000000
     atom    7 type  2   force =     0.00000000    0.00000000   -0.00000000
     atom    8 type  2   force =     0.00000000    0.00000000    0.00000000
     atom    9 type  2   force =     0.00013102    0.00013102    0.00000000
     atom   10 type  2   force =    -0.00013102    0.00013102    0.00000000
     atom   11 type  2   force =    -0.00013102   -0.00013102    0.00000000
     atom   12 type  2   force =    -0.00013102    0.00013102    0.00000000
     atom   13 type  2   force =    -0.00013102   -0.00013102    0.00000000
     atom   14 type  2   force =     0.00013102   -0.00013102    0.00000000
     atom   15 type  2   force =     0.00013102   -0.00013102    0.00000000
     atom   16 type  2   force =     0.00013102    0.00013102    0.00000000
     atom   17 type  3   force =     0.00007991    0.00087334   -0.00082599
     atom   18 type  3   force =    -0.00007991    0.00087334    0.00082599
     atom   19 type  3   force =    -0.00087334   -0.00007991    0.00082599
     atom   20 type  3   force =    -0.00007991    0.00087334   -0.00082599
     atom   21 type  3   force =    -0.00087334   -0.00007991   -0.00082599
     atom   22 type  3   force =    -0.00007991   -0.00087334   -0.00082599
     atom   23 type  3   force =     0.00087334   -0.00007991   -0.00082599
     atom   24 type  3   force =    -0.00007991   -0.00087334    0.00082599
     atom   25 type  3   force =     0.00087334   -0.00007991    0.00082599
     atom   26 type  3   force =    -0.00087334    0.00007991   -0.00082599
     atom   27 type  3   force =     0.00007991    0.00087334    0.00082599
     atom   28 type  3   force =    -0.00087334    0.00007991    0.00082599
     atom   29 type  3   force =     0.00007991   -0.00087334    0.00082599
     atom   30 type  3   force =     0.00087334    0.00007991    0.00082599
     atom   31 type  3   force =     0.00007991   -0.00087334   -0.00082599
     atom   32 type  3   force =     0.00087334    0.00007991   -0.00082599
     atom   33 type  3   force =     0.00000000    0.00000000    0.00089709
     atom   34 type  3   force =     0.00000000    0.00000000   -0.00089709
     atom   35 type  3   force =     0.00000000    0.00000000    0.00089709
     atom   36 type  3   force =     0.00000000    0.00000000   -0.00089709
     atom   37 type  3   force =     0.00031562    0.00079197    0.00000000
     atom   38 type  3   force =    -0.00031562    0.00079197   -0.00000000
     atom   39 type  3   force =    -0.00079197   -0.00031562    0.00000000
     atom   40 type  3   force =    -0.00031562   -0.00079197    0.00000000
     atom   41 type  3   force =     0.00079197   -0.00031562   -0.00000000
     atom   42 type  3   force =    -0.00079197    0.00031562   -0.00000000
     atom   43 type  3   force =     0.00031562   -0.00079197   -0.00000000
     atom   44 type  3   force =     0.00079197    0.00031562    0.00000000

     Total force =     0.005704     Total SCF correction =     0.000005

     Computing stress (Cartesian axis) and pressure

          total   stress  (Ry/bohr**3)                   (kbar)     P=       13.32
   0.00009117   0.00000000   0.00000000           13.41        0.00        0.00
   0.00000000   0.00009117   0.00000000            0.00       13.41        0.00
   0.00000000   0.00000000   0.00008937            0.00        0.00       13.15

     Energy error            =      6.3E-05 Ry
     Gradient error          =      9.0E-04 Ry/Bohr

     bfgs converged in   8 scf cycles and   7 bfgs steps
     (criteria: energy <  1.0E-04 Ry, force <  1.0E-03 Ry/Bohr)

     End of BFGS Geometry Optimization

     Final energy             =   -1223.6405714933 Ry

     File temp/na5alh14.bfgs deleted, as requested
Begin final coordinates

ATOMIC_POSITIONS (crystal)
Al            0.0000000000        0.0000000000        0.5000000000
Al            0.5000000000        0.5000000000       -0.0000000000
Al            0.0000000000        0.5000000000        0.0000000000
Al            0.5000000000        0.0000000000        0.5000000000
Al            0.0000000000        0.5000000000        0.5000000000
Al            0.5000000000        0.0000000000       -0.0000000000
Na            0.0000000000        0.0000000000       -0.0000000000
Na            0.5000000000        0.5000000000        0.5000000000
Na            0.7867926915        0.2867926915        0.2500000000
Na            0.7132073085        0.7867926915        0.2500000000
Na            0.2132073085        0.7132073085        0.2500000000
Na            0.7132073085        0.7867926915        0.7500000000
Na            0.2132073085        0.7132073085        0.7500000000
Na            0.2867926915        0.2132073085        0.2500000000
Na            0.2867926915        0.2132073085        0.7500000000
Na            0.7867926915        0.2867926915        0.7500000000
H             0.0448119173        0.3192088292        0.1184175414
H             0.4551880827        0.8192088292        0.3815824586
H             0.1807911708        0.4551880827        0.3815824586
H             0.4551880827        0.8192088292        0.6184175414
H             0.1807911708        0.4551880827        0.6184175414
H             0.9551880827        0.6807911708        0.1184175414
H             0.3192088292        0.9551880827        0.1184175414
H             0.9551880827        0.6807911708        0.8815824586
H             0.3192088292        0.9551880827        0.8815824586
H             0.6807911708        0.0448119173        0.1184175414
H             0.0448119173        0.3192088292        0.8815824586
H             0.6807911708        0.0448119173        0.8815824586
H             0.5448119173        0.1807911708        0.3815824586
H             0.8192088292        0.5448119173        0.3815824586
H             0.5448119173        0.1807911708        0.6184175414
H             0.8192088292        0.5448119173        0.6184175414
H             0.0000000000        0.0000000000        0.3285153115
H             0.5000000000        0.5000000000        0.1714846885
H             0.5000000000        0.5000000000        0.8285153115
H             0.0000000000        0.0000000000        0.6714846885
H             0.2520913161        0.5781773156       -0.0000000000
H             0.2479086839        0.0781773156        0.5000000000
H             0.9218226844        0.2479086839        0.5000000000
H             0.7479086839        0.4218226844       -0.0000000000
H             0.5781773156        0.7479086839       -0.0000000000
H             0.4218226844        0.2520913161       -0.0000000000
H             0.7520913161        0.9218226844        0.5000000000
H             0.0781773156        0.7520913161        0.5000000000
End final coordinates

     General routines

     Parallel routines

   This run was terminated on:  19:18:29  31Oct2023

   JOB DONE.
Job execution finished at: Tue Oct 31 19:18:29 IST 2023