     Program PWSCF v.7.1 starts on 31Oct2023 at 20: 0:15

     Reading input from na5alh14.in

     Current dimensions of program PWSCF are:
     Max number of different atomic species (ntypx) = 10
     Max number of k-points (npk) =  40000
     Max angular momentum in pseudopotentials (lmaxx) =  4
     file Al.pbe-n-kjpaw_psl.1.0.0.UPF: wavefunction(s)  3S 3P renormalized

     IMPORTANT: XC functional enforced from input :
     Exchange-correlation= PBE
                           (   1   4   3   4   0   0   0)
     Any further DFT definition will be discarded
     Please, verify this is what you really want

     Message from routine setup:
     using ibrav=0 with symmetry is DISCOURAGED, use correct ibrav instead

     K-points division:     npool     =       3
     R & G space division:  proc/nbgrp/npool/nimage =      48
     Subspace diagonalization in iterative solution of the eigenvalue problem:
     a serial algorithm will be used

     Using Slab Decomposition

     bravais-lattice index     =            0
     lattice parameter (alat)  =      12.6114  a.u.
     unit-cell volume          =    3067.3055 (a.u.)^3
     number of atoms/cell      =           44
     number of atomic types    =            3
     number of electrons       =       136.00
     number of Kohn-Sham states=           82
     kinetic-energy cutoff     =      75.0000  Ry
     charge density cutoff     =     375.0000  Ry
     scf convergence threshold =      1.0E-08
     mixing beta               =       0.7000
     number of iterations used =            8  plain     mixing
     energy convergence thresh.=      1.0E-04
     force convergence thresh. =      1.0E-03
     press convergence thresh. =      5.0E-01
     Exchange-correlation= PBE
                           (   1   4   3   4   0   0   0)
     nstep                     =           50

     celldm(1)=  12.611352  celldm(2)=   0.000000  celldm(3)=   0.000000
     celldm(4)=   0.000000  celldm(5)=   0.000000  celldm(6)=   0.000000

     crystal axes: (cart. coord. in units of alat)
               a(1) = (   1.000000   0.000000   0.000000 )
               a(2) = (   0.000000   1.000000   0.000000 )
               a(3) = (   0.000000   0.000000   1.529227 )

     reciprocal axes: (cart. coord. in units 2 pi/alat)
               b(1) = (  1.000000  0.000000  0.000000 )
               b(2) = (  0.000000  1.000000  0.000000 )
               b(3) = (  0.000000  0.000000  0.653925 )

     PseudoPot. # 1 for Al read from file:
     /home/garima.iitr/.cache/.es/compmat/na5alh14/Al.pbe-n-kjpaw_psl.1.0.0.UPF
     MD5 check sum: 502b6b27b9c6270cab5dd1084b96fa6d
     Pseudo is Projector augmented-wave + core cor, Zval =  3.0
     Generated using &quot;atomic&quot; code by A. Dal Corso  v.6.3
     Shape of augmentation charge: PSQ
     Using radial grid of 1135 points,  6 beta functions with:
                l(1) =   0
                l(2) =   0
                l(3) =   1
                l(4) =   1
                l(5) =   2
                l(6) =   2
     Q(r) pseudized with 0 coefficients

     PseudoPot. # 2 for Na read from file:
     /home/garima.iitr/.cache/.es/compmat/na5alh14/na_pbe_v1.5.uspp.F.UPF
     MD5 check sum: 44600605ef58000f06b90626533354dc
     Pseudo is Ultrasoft, Zval =  9.0
     Generated by new atomic code, or converted to UPF format
     Using radial grid of  819 points,  5 beta functions with:
                l(1) =   0
                l(2) =   0
                l(3) =   1
                l(4) =   1
                l(5) =   2
     Q(r) pseudized with  8 coefficients,  rinner =    1.250   1.250   1.250
                                                       1.250   1.250

     PseudoPot. # 3 for H  read from file:
     /home/garima.iitr/.cache/.es/compmat/na5alh14/H.pbe-rrkjus_psl.1.0.0.UPF
     MD5 check sum: 3f4114867bd07edc7f1424d066fc1888
     Pseudo is Ultrasoft, Zval =  1.0
     Generated using &quot;atomic&quot; code by A. Dal Corso  v.6.3MaX
     Using radial grid of  929 points,  2 beta functions with:
                l(1) =   0
                l(2) =   0
     Q(r) pseudized with 0 coefficients

     atomic species   valence    mass     pseudopotential
        Al             3.00    26.98100     Al( 1.00)
        Na             9.00    22.98900     Na( 1.00)
        H              1.00     1.00750     H ( 1.00)

     16 Sym. Ops., with inversion, found ( 8 have fractional translation)

   Cartesian axes

     site n.     atom                  positions (alat units)
         1           Al  tau(   1) = (   0.0000000   0.0000000   0.7646137  )
         2           Al  tau(   2) = (   0.5000000   0.5000000   0.0000000  )
         3           Al  tau(   3) = (   0.0000000   0.5000000   0.0000000  )
         4           Al  tau(   4) = (   0.5000000   0.0000000   0.7646137  )
         5           Al  tau(   5) = (   0.0000000   0.5000000   0.7646137  )
         6           Al  tau(   6) = (   0.5000000   0.0000000   0.0000000  )
         7           Na  tau(   7) = (   0.0000000   0.0000000   0.0000000  )
         8           Na  tau(   8) = (   0.5000000   0.5000000   0.7646137  )
         9           Na  tau(   9) = (   0.7867927   0.2867927   0.3823069  )
        10           Na  tau(  10) = (   0.7132073   0.7867927   0.3823069  )
        11           Na  tau(  11) = (   0.2132073   0.7132073   0.3823069  )
        12           Na  tau(  12) = (   0.7132073   0.7867927   1.1469206  )
        13           Na  tau(  13) = (   0.2132073   0.7132073   1.1469206  )
        14           Na  tau(  14) = (   0.2867927   0.2132073   0.3823069  )
        15           Na  tau(  15) = (   0.2867927   0.2132073   1.1469206  )
        16           Na  tau(  16) = (   0.7867927   0.2867927   1.1469206  )
        17           H   tau(  17) = (   0.0448119   0.3192088   0.1810874  )
        18           H   tau(  18) = (   0.4551881   0.8192088   0.5835264  )
        19           H   tau(  19) = (   0.1807912   0.4551881   0.5835264  )
        20           H   tau(  20) = (   0.4551881   0.8192088   0.9457011  )
        21           H   tau(  21) = (   0.1807912   0.4551881   0.9457011  )
        22           H   tau(  22) = (   0.9551881   0.6807912   0.1810874  )
        23           H   tau(  23) = (   0.3192088   0.9551881   0.1810874  )
        24           H   tau(  24) = (   0.9551881   0.6807912   1.3481401  )
        25           H   tau(  25) = (   0.3192088   0.9551881   1.3481401  )
        26           H   tau(  26) = (   0.6807912   0.0448119   0.1810874  )
        27           H   tau(  27) = (   0.0448119   0.3192088   1.3481401  )
        28           H   tau(  28) = (   0.6807912   0.0448119   1.3481401  )
        29           H   tau(  29) = (   0.5448119   0.1807912   0.5835264  )
        30           H   tau(  30) = (   0.8192088   0.5448119   0.5835264  )
        31           H   tau(  31) = (   0.5448119   0.1807912   0.9457011  )
        32           H   tau(  32) = (   0.8192088   0.5448119   0.9457011  )
        33           H   tau(  33) = (   0.0000000   0.0000000   0.5023746  )
        34           H   tau(  34) = (   0.5000000   0.5000000   0.2622391  )
        35           H   tau(  35) = (   0.5000000   0.5000000   1.2669884  )
        36           H   tau(  36) = (   0.0000000   0.0000000   1.0268529  )
        37           H   tau(  37) = (   0.2520913   0.5781773   0.0000000  )
        38           H   tau(  38) = (   0.2479087   0.0781773   0.7646137  )
        39           H   tau(  39) = (   0.9218227   0.2479087   0.7646137  )
        40           H   tau(  40) = (   0.7479087   0.4218227   0.0000000  )
        41           H   tau(  41) = (   0.5781773   0.7479087   0.0000000  )
        42           H   tau(  42) = (   0.4218227   0.2520913   0.0000000  )
        43           H   tau(  43) = (   0.7520913   0.9218227   0.7646137  )
        44           H   tau(  44) = (   0.0781773   0.7520913   0.7646137  )

     number of k points=    30  Marzari-Vanderbilt smearing, width (Ry)=  0.0050
                       cart. coord. in units 2pi/alat
        k(    1) = (   0.0000000   0.0000000   0.0000000), wk =   0.0138889
        k(    2) = (   0.0000000   0.0000000   0.1634812), wk =   0.0277778
        k(    3) = (   0.0000000   0.0000000  -0.3269625), wk =   0.0138889
        k(    4) = (   0.0000000   0.1666667   0.0000000), wk =   0.0555556
        k(    5) = (   0.0000000   0.1666667   0.1634812), wk =   0.1111111
        k(    6) = (   0.0000000   0.1666667  -0.3269625), wk =   0.0555556
        k(    7) = (   0.0000000   0.3333333   0.0000000), wk =   0.0555556
        k(    8) = (   0.0000000   0.3333333   0.1634812), wk =   0.1111111
        k(    9) = (   0.0000000   0.3333333  -0.3269625), wk =   0.0555556
        k(   10) = (   0.0000000  -0.5000000   0.0000000), wk =   0.0277778
        k(   11) = (   0.0000000  -0.5000000   0.1634812), wk =   0.0555556
        k(   12) = (   0.0000000  -0.5000000  -0.3269625), wk =   0.0277778
        k(   13) = (   0.1666667   0.1666667   0.0000000), wk =   0.0555556
        k(   14) = (   0.1666667   0.1666667   0.1634812), wk =   0.1111111
        k(   15) = (   0.1666667   0.1666667  -0.3269625), wk =   0.0555556
        k(   16) = (   0.1666667   0.3333333   0.0000000), wk =   0.1111111
        k(   17) = (   0.1666667   0.3333333   0.1634812), wk =   0.2222222
        k(   18) = (   0.1666667   0.3333333  -0.3269625), wk =   0.1111111
        k(   19) = (   0.1666667  -0.5000000   0.0000000), wk =   0.0555556
        k(   20) = (   0.1666667  -0.5000000   0.1634812), wk =   0.1111111
        k(   21) = (   0.1666667  -0.5000000  -0.3269625), wk =   0.0555556
        k(   22) = (   0.3333333   0.3333333   0.0000000), wk =   0.0555556
        k(   23) = (   0.3333333   0.3333333   0.1634812), wk =   0.1111111
        k(   24) = (   0.3333333   0.3333333  -0.3269625), wk =   0.0555556
        k(   25) = (   0.3333333  -0.5000000   0.0000000), wk =   0.0555556
        k(   26) = (   0.3333333  -0.5000000   0.1634812), wk =   0.1111111
        k(   27) = (   0.3333333  -0.5000000  -0.3269625), wk =   0.0555556
        k(   28) = (  -0.5000000  -0.5000000   0.0000000), wk =   0.0138889
        k(   29) = (  -0.5000000  -0.5000000   0.1634812), wk =   0.0277778
        k(   30) = (  -0.5000000  -0.5000000  -0.3269625), wk =   0.0138889

     Initial potential from superposition of free atoms

     starting charge     135.9231, renormalised to     136.0000
     Starting wfcs are  102 randomized atomic wfcs
     Checking if some PAW data can be deallocated...

     Self-consistent Calculation

     iteration #  1     ecut=    75.00 Ry     beta= 0.70
     Davidson diagonalization with overlap
     ethr =  1.00E-02,  avg # of iterations =  5.5

     total energy              =   -1223.45808571 Ry
     estimated scf accuracy    <       1.93451106 Ry

[...]

     End of self-consistent calculation

          k = 0.0000 0.0000 0.0000 ( 33673 PWs)   bands (ev):

   -49.1965 -49.1965 -48.8797 -48.8797 -48.8769 -48.8769 -48.8769 -48.8769
   -48.8743 -48.8743 -21.1434 -21.1409 -21.1079 -21.1079 -21.1065 -21.1065
[...]
H             0.0000000000        0.0000000000        0.6688348833
H             0.2520867554        0.5742072486        0.0000000000
H             0.2479132446        0.0742072486        0.5000000000
H             0.9257927514        0.2479132446        0.5000000000
H             0.7479132446        0.4257927514        0.0000000000
H             0.5742072486        0.7479132446        0.0000000000
H             0.4257927514        0.2520867554        0.0000000000
H             0.7520867554        0.9257927514        0.5000000000
H             0.0742072486        0.7520867554        0.5000000000
End final coordinates

     Writing config-only to output data dir temp/na5alh14.save/

     Final scf calculation at the relaxed structure.
     The G-vectors are recalculated for the final unit cell
     Results may differ from those at the preceding step.

     Using Slab Decomposition

     bravais-lattice index     =            0
     lattice parameter (alat)  =      12.6114  a.u.
     unit-cell volume          =    3194.5569 (a.u.)^3
     number of atoms/cell      =           44
     number of atomic types    =            3
     number of electrons       =       136.00
     number of Kohn-Sham states=           82
     kinetic-energy cutoff     =      75.0000  Ry
     charge density cutoff     =     375.0000  Ry
     scf convergence threshold =      1.0E-10
     mixing beta               =       0.7000
     number of iterations used =            8  plain     mixing
     press convergence thresh. =      5.0E-01
     Exchange-correlation= PBE
                           (   1   4   3   4   0   0   0)

     celldm(1)=  12.611352  celldm(2)=   0.000000  celldm(3)=   0.000000
     celldm(4)=   0.000000  celldm(5)=   0.000000  celldm(6)=   0.000000

     crystal axes: (cart. coord. in units of alat)
               a(1) = (   1.012667   0.000000   0.000000 )
               a(2) = (   0.000000   1.012667   0.000000 )
               a(3) = (   0.000000   0.000000   1.553074 )

     reciprocal axes: (cart. coord. in units 2 pi/alat)
               b(1) = (  0.987491  0.000000  0.000000 )
               b(2) = (  0.000000  0.987491  0.000000 )
               b(3) = (  0.000000  0.000000  0.643884 )

     PseudoPot. # 1 for Al read from file:
     /home/garima.iitr/.cache/.es/compmat/na5alh14/Al.pbe-n-kjpaw_psl.1.0.0.UPF
     MD5 check sum: 502b6b27b9c6270cab5dd1084b96fa6d
     Pseudo is Projector augmented-wave + core cor, Zval =  3.0
     Generated using &quot;atomic&quot; code by A. Dal Corso  v.6.3
     Shape of augmentation charge: PSQ
     Using radial grid of 1135 points,  6 beta functions with:
                l(1) =   0
                l(2) =   0
                l(3) =   1
                l(4) =   1
                l(5) =   2
                l(6) =   2
     Q(r) pseudized with 0 coefficients

     PseudoPot. # 2 for Na read from file:
     /home/garima.iitr/.cache/.es/compmat/na5alh14/na_pbe_v1.5.uspp.F.UPF
     MD5 check sum: 44600605ef58000f06b90626533354dc
     Pseudo is Ultrasoft, Zval =  9.0
     Generated by new atomic code, or converted to UPF format
     Using radial grid of  819 points,  5 beta functions with:
                l(1) =   0
                l(2) =   0
                l(3) =   1
                l(4) =   1
                l(5) =   2
     Q(r) pseudized with  8 coefficients,  rinner =    1.250   1.250   1.250
                                                       1.250   1.250

     PseudoPot. # 3 for H  read from file:
     /home/garima.iitr/.cache/.es/compmat/na5alh14/H.pbe-rrkjus_psl.1.0.0.UPF
     MD5 check sum: 3f4114867bd07edc7f1424d066fc1888
     Pseudo is Ultrasoft, Zval =  1.0
     Generated using &quot;atomic&quot; code by A. Dal Corso  v.6.3MaX
     Using radial grid of  929 points,  2 beta functions with:
                l(1) =   0
                l(2) =   0
     Q(r) pseudized with 0 coefficients

     atomic species   valence    mass     pseudopotential
        Al             3.00    26.98100     Al( 1.00)
        Na             9.00    22.98900     Na( 1.00)
        H              1.00     1.00750     H ( 1.00)

     16 Sym. Ops., with inversion, found ( 8 have fractional translation)

   Cartesian axes

     site n.     atom                  positions (alat units)
         1           Al  tau(   1) = (   0.0000000   0.0000000   0.7765370  )
         2           Al  tau(   2) = (   0.5063336   0.5063336   0.0000000  )
         3           Al  tau(   3) = (   0.0000000   0.5063336   0.0000000  )
         4           Al  tau(   4) = (   0.5063336   0.0000000   0.7765370  )
         5           Al  tau(   5) = (   0.0000000   0.5063336   0.7765370  )
         6           Al  tau(   6) = (   0.5063336   0.0000000  -0.0000000  )
         7           Na  tau(   7) = (   0.0000000   0.0000000   0.0000000  )
         8           Na  tau(   8) = (   0.5063336   0.5063336   0.7765370  )
         9           Na  tau(   9) = (   0.7966580   0.2903243   0.3882685  )
        10           Na  tau(  10) = (   0.7223430   0.7966580   0.3882685  )
        11           Na  tau(  11) = (   0.2160093   0.7223430   0.3882685  )
        12           Na  tau(  12) = (   0.7223430   0.7966580   1.1648054  )
        13           Na  tau(  13) = (   0.2160093   0.7223430   1.1648054  )
        14           Na  tau(  14) = (   0.2903243   0.2160093   0.3882685  )
        15           Na  tau(  15) = (   0.2903243   0.2160093   1.1648054  )
        16           Na  tau(  16) = (   0.7966580   0.2903243   1.1648054  )
        17           H   tau(  17) = (   0.0440782   0.3247132   0.1821622  )
        18           H   tau(  18) = (   0.4622555   0.8310468   0.5943748  )
        19           H   tau(  19) = (   0.1816205   0.4622555   0.5943748  )
        20           H   tau(  20) = (   0.4622555   0.8310468   0.9586991  )
        21           H   tau(  21) = (   0.1816205   0.4622555   0.9586991  )
        22           H   tau(  22) = (   0.9685891   0.6879541   0.1821622  )
        23           H   tau(  23) = (   0.3247132   0.9685891   0.1821622  )
        24           H   tau(  24) = (   0.9685891   0.6879541   1.3709118  )
        25           H   tau(  25) = (   0.3247132   0.9685891   1.3709118  )
        26           H   tau(  26) = (   0.6879541   0.0440782   0.1821622  )
        27           H   tau(  27) = (   0.0440782   0.3247132   1.3709118  )
        28           H   tau(  28) = (   0.6879541   0.0440782   1.3709118  )
        29           H   tau(  29) = (   0.5504118   0.1816205   0.5943748  )
        30           H   tau(  30) = (   0.8310468   0.5504118   0.5943748  )
        31           H   tau(  31) = (   0.5504118   0.1816205   0.9586991  )
        32           H   tau(  32) = (   0.8310468   0.5504118   0.9586991  )
        33           H   tau(  33) = (   0.0000000   0.0000000   0.5143239  )
        34           H   tau(  34) = (   0.5063336   0.5063336   0.2622131  )
        35           H   tau(  35) = (   0.5063336   0.5063336   1.2908609  )
        36           H   tau(  36) = (   0.0000000   0.0000000   1.0387500  )
        37           H   tau(  37) = (   0.2552800   0.5814809   0.0000000  )
        38           H   tau(  38) = (   0.2510536   0.0751473   0.7765370  )
        39           H   tau(  39) = (   0.9375200   0.2510536   0.7765370  )
        40           H   tau(  40) = (   0.7573873   0.4311864   0.0000000  )
        41           H   tau(  41) = (   0.5814809   0.7573873   0.0000000  )
        42           H   tau(  42) = (   0.4311864   0.2552800   0.0000000  )
        43           H   tau(  43) = (   0.7616137   0.9375200   0.7765370  )
        44           H   tau(  44) = (   0.0751473   0.7616137   0.7765370  )

     number of k points=    30  Marzari-Vanderbilt smearing, width (Ry)=  0.0050
                       cart. coord. in units 2pi/alat
        k(    1) = (   0.0000000   0.0000000   0.0000000), wk =   0.0138889
        k(    2) = (   0.0000000   0.0000000   0.1609711), wk =   0.0277778
        k(    3) = (   0.0000000   0.0000000  -0.3219422), wk =   0.0138889
        k(    4) = (   0.0000000   0.1645819   0.0000000), wk =   0.0555556
        k(    5) = (   0.0000000   0.1645819   0.1609711), wk =   0.1111111
        k(    6) = (   0.0000000   0.1645819  -0.3219422), wk =   0.0555556
        k(    7) = (   0.0000000   0.3291637   0.0000000), wk =   0.0555556
        k(    8) = (   0.0000000   0.3291637   0.1609711), wk =   0.1111111
        k(    9) = (   0.0000000   0.3291637  -0.3219422), wk =   0.0555556
        k(   10) = (   0.0000000  -0.4937456   0.0000000), wk =   0.0277778
        k(   11) = (   0.0000000  -0.4937456   0.1609711), wk =   0.0555556
        k(   12) = (   0.0000000  -0.4937456  -0.3219422), wk =   0.0277778
        k(   13) = (   0.1645819   0.1645819   0.0000000), wk =   0.0555556
        k(   14) = (   0.1645819   0.1645819   0.1609711), wk =   0.1111111
        k(   15) = (   0.1645819   0.1645819  -0.3219422), wk =   0.0555556
        k(   16) = (   0.1645819   0.3291637   0.0000000), wk =   0.1111111
        k(   17) = (   0.1645819   0.3291637   0.1609711), wk =   0.2222222
        k(   18) = (   0.1645819   0.3291637  -0.3219422), wk =   0.1111111
        k(   19) = (   0.1645819  -0.4937456   0.0000000), wk =   0.0555556
        k(   20) = (   0.1645819  -0.4937456   0.1609711), wk =   0.1111111
        k(   21) = (   0.1645819  -0.4937456  -0.3219422), wk =   0.0555556
        k(   22) = (   0.3291637   0.3291637   0.0000000), wk =   0.0555556
        k(   23) = (   0.3291637   0.3291637   0.1609711), wk =   0.1111111
        k(   24) = (   0.3291637   0.3291637  -0.3219422), wk =   0.0555556
        k(   25) = (   0.3291637  -0.4937456   0.0000000), wk =   0.0555556
        k(   26) = (   0.3291637  -0.4937456   0.1609711), wk =   0.1111111
        k(   27) = (   0.3291637  -0.4937456  -0.3219422), wk =   0.0555556
        k(   28) = (  -0.4937456  -0.4937456   0.0000000), wk =   0.0138889
        k(   29) = (  -0.4937456  -0.4937456   0.1609711), wk =   0.0277778
        k(   30) = (  -0.4937456  -0.4937456  -0.3219422), wk =   0.0138889

     Initial potential from superposition of free atoms

     starting charge     135.9231, renormalised to     136.0000
     Starting wfcs are  102 randomized atomic wfcs
     Checking if some PAW data can be deallocated...

     Self-consistent Calculation

     iteration #  1     ecut=    75.00 Ry     beta= 0.70
     Davidson diagonalization with overlap
     c_bands:  1 eigenvalues not converged
     c_bands:  3 eigenvalues not converged
     c_bands:  2 eigenvalues not converged
     c_bands:  1 eigenvalues not converged
     c_bands:  5 eigenvalues not converged
     c_bands:  5 eigenvalues not converged
     c_bands:  4 eigenvalues not converged
     c_bands:  2 eigenvalues not converged
     ethr =  1.00E-06,  avg # of iterations = 23.4

[...]

     total energy              =   -1223.64645231 Ry
     estimated scf accuracy    <          1.1E-10 Ry

     iteration # 11     ecut=    75.00 Ry     beta= 0.70
     Davidson diagonalization with overlap
     ethr =  1.00E-13,  avg # of iterations =  2.0

     End of self-consistent calculation

[...]

          k = 0.3292-0.4937-0.3219 ( 35024 PWs)   bands (ev):

[...]

          k =-0.4937-0.4937-0.3219 ( 35032 PWs)   bands (ev):

   -49.5163 -49.5163 -49.2093 -49.2093 -49.2093 -49.2093 -49.2092 -49.2092
   -49.2092 -49.2092 -21.4605 -21.4605 -21.4239 -21.4239 -21.4239 -21.4239
   -21.1583 -21.1583 -21.1581 -21.1581 -21.1543 -21.1543 -21.1543 -21.1543
   -21.1368 -21.1368 -21.1368 -21.1368 -21.1310 -21.1310 -21.1310 -21.1310
   -21.1216 -21.1216 -21.1216 -21.1216 -21.1210 -21.1210 -21.1202 -21.1202
    -5.0929  -5.0929  -4.8093  -4.8093  -4.8093  -4.8093  -2.3777  -2.3777
    -1.2474  -1.2474  -1.2474  -1.2474  -1.1888  -1.1888  -0.5366  -0.5366
    -0.3927  -0.3927  -0.2369  -0.2369  -0.1173  -0.1173  -0.1173  -0.1173
     0.7838   0.7838   1.5583   1.5583   5.3401   5.3401   5.5644   5.5644
     5.5644   5.5644   6.3960   6.3960   6.9921   6.9921   6.9921   6.9921
     7.2283   7.2283

     the Fermi energy is     2.9422 ev

!    total energy              =   -1223.64645231 Ry
     estimated scf accuracy    <          6.9E-12 Ry
     smearing contrib. (-TS)   =       0.00000000 Ry
     internal energy E=F+TS    =   -1223.64645231 Ry

     The total energy is F=E-TS. E is the sum of the following terms:
     one-electron contribution =    -826.29415392 Ry
     hartree contribution      =     440.85794900 Ry
     xc contribution           =    -179.51255596 Ry
     ewald contribution        =    -450.69285864 Ry
     one-center paw contrib.   =    -208.00483279 Ry

     convergence has been achieved in  11 iterations

     Forces acting on atoms (cartesian axes, Ry/au):

     atom    1 type  1   force =     0.00000000    0.00000000    0.00000000
     atom    2 type  1   force =     0.00000000    0.00000000    0.00000000
     atom    3 type  1   force =     0.00000000    0.00000000    0.00000000
     atom    4 type  1   force =     0.00000000    0.00000000   -0.00000000
     atom    5 type  1   force =     0.00000000    0.00000000   -0.00000000
     atom    6 type  1   force =     0.00000000    0.00000000    0.00000000
     atom    7 type  2   force =     0.00000000    0.00000000    0.00000000
     atom    8 type  2   force =     0.00000000    0.00000000    0.00000000
     atom    9 type  2   force =    -0.00017285   -0.00017285    0.00000000
     atom   10 type  2   force =     0.00017285   -0.00017285    0.00000000
     atom   11 type  2   force =     0.00017285    0.00017285    0.00000000
     atom   12 type  2   force =     0.00017285   -0.00017285    0.00000000
     atom   13 type  2   force =     0.00017285    0.00017285    0.00000000
     atom   14 type  2   force =    -0.00017285    0.00017285    0.00000000
     atom   15 type  2   force =    -0.00017285    0.00017285    0.00000000
     atom   16 type  2   force =    -0.00017285   -0.00017285    0.00000000
     atom   17 type  3   force =    -0.00022363    0.00022609    0.00004780
     atom   18 type  3   force =     0.00022363    0.00022609   -0.00004780
     atom   19 type  3   force =    -0.00022609    0.00022363   -0.00004780
     atom   20 type  3   force =     0.00022363    0.00022609    0.00004780
     atom   21 type  3   force =    -0.00022609    0.00022363    0.00004780
     atom   22 type  3   force =     0.00022363   -0.00022609    0.00004780
     atom   23 type  3   force =     0.00022609    0.00022363    0.00004780
     atom   24 type  3   force =     0.00022363   -0.00022609   -0.00004780
     atom   25 type  3   force =     0.00022609    0.00022363   -0.00004780
     atom   26 type  3   force =    -0.00022609   -0.00022363    0.00004780
     atom   27 type  3   force =    -0.00022363    0.00022609   -0.00004780
     atom   28 type  3   force =    -0.00022609   -0.00022363   -0.00004780
     atom   29 type  3   force =    -0.00022363   -0.00022609   -0.00004780
     atom   30 type  3   force =     0.00022609   -0.00022363   -0.00004780
     atom   31 type  3   force =    -0.00022363   -0.00022609    0.00004780
     atom   32 type  3   force =     0.00022609   -0.00022363    0.00004780
     atom   33 type  3   force =     0.00000000    0.00000000   -0.00032784
     atom   34 type  3   force =     0.00000000    0.00000000    0.00032784
     atom   35 type  3   force =     0.00000000    0.00000000   -0.00032784
     atom   36 type  3   force =     0.00000000    0.00000000    0.00032784
     atom   37 type  3   force =     0.00013804   -0.00008333    0.00000000
     atom   38 type  3   force =    -0.00013804   -0.00008333   -0.00000000
     atom   39 type  3   force =     0.00008333   -0.00013804    0.00000000
     atom   40 type  3   force =    -0.00013804    0.00008333    0.00000000
     atom   41 type  3   force =    -0.00008333   -0.00013804   -0.00000000
     atom   42 type  3   force =     0.00008333    0.00013804   -0.00000000
     atom   43 type  3   force =     0.00013804    0.00008333   -0.00000000
     atom   44 type  3   force =    -0.00008333    0.00013804    0.00000000

     Total force =     0.001664     Total SCF correction =     0.000002

     Computing stress (Cartesian axis) and pressure

          total   stress  (Ry/bohr**3)                   (kbar)     P=       -0.27
  -0.00000197   0.00000000   0.00000000           -0.29        0.00        0.00
   0.00000000  -0.00000197   0.00000000            0.00       -0.29        0.00
   0.00000000   0.00000000  -0.00000158            0.00        0.00       -0.23

     General routines

     Parallel routines

   This run was terminated on:  20: 7:33  31Oct2023

   JOB DONE.
Job execution finished at: Tue Oct 31 20:07:33 IST 2023