     Program PWSCF v.7.1 starts on 31Oct2023 at 19:15:13

     Reading input from na3alh6.in

     Current dimensions of program PWSCF are:
     Max number of different atomic species (ntypx) = 10
     Max number of k-points (npk) =  40000
     Max angular momentum in pseudopotentials (lmaxx) =  4
     file Al.pbe-n-kjpaw_psl.1.0.0.UPF: wavefunction(s)  3S 3P renormalized

     IMPORTANT: XC functional enforced from input :
     Exchange-correlation= PBE
                           (   1   4   3   4   0   0   0)
     Any further DFT definition will be discarded
     Please, verify this is what you really want

     Message from routine setup:
     using ibrav=0 with symmetry is DISCOURAGED, use correct ibrav instead

     K-points division:     npool     =       3
     R & G space division:  proc/nbgrp/npool/nimage =      48
     Subspace diagonalization in iterative solution of the eigenvalue problem:
     a serial algorithm will be used

     Using Slab Decomposition

     bravais-lattice index     =            0
     lattice parameter (alat)  =      10.0031  a.u.
     unit-cell volume          =    1494.3871 (a.u.)^3
     number of atoms/cell      =           20
     number of atomic types    =            3
     number of electrons       =        72.00
     number of Kohn-Sham states=           43
     kinetic-energy cutoff     =      75.0000  Ry
     charge density cutoff     =     375.0000  Ry
     scf convergence threshold =      1.0E-08
     mixing beta               =       0.7000
     number of iterations used =            8  plain     mixing
     energy convergence thresh.=      1.0E-04
     force convergence thresh. =      1.0E-03
     Exchange-correlation= PBE
                           (   1   4   3   4   0   0   0)
     nstep                     =           50

     celldm(1)=  10.003076  celldm(2)=   0.000000  celldm(3)=   0.000000
     celldm(4)=   0.000000  celldm(5)=   0.000000  celldm(6)=   0.000000

     crystal axes: (cart. coord. in units of alat)
               a(1) = (   1.000000   0.000000   0.000000 )
               a(2) = (   0.000000   1.037180   0.000000 )
               a(3) = (  -0.999562   0.000000   1.439488 )

     reciprocal axes: (cart. coord. in units 2 pi/alat)
               b(1) = (  1.000000  0.000000  0.694387 )
               b(2) = (  0.000000  0.964153  0.000000 )
               b(3) = (  0.000000  0.000000  0.694691 )

     PseudoPot. # 1 for Al read from file:
     /home/garima.iitr/.cache/.es/compmat/na3alh6/Al.pbe-n-kjpaw_psl.1.0.0.UPF
     MD5 check sum: 502b6b27b9c6270cab5dd1084b96fa6d
     Pseudo is Projector augmented-wave + core cor, Zval =  3.0
     Generated using &quot;atomic&quot; code by A. Dal Corso  v.6.3
     Shape of augmentation charge: PSQ
     Using radial grid of 1135 points,  6 beta functions with:
                l(1) =   0
                l(2) =   0
                l(3) =   1
                l(4) =   1
                l(5) =   2
                l(6) =   2
     Q(r) pseudized with 0 coefficients

     PseudoPot. # 2 for H  read from file:
     /home/garima.iitr/.cache/.es/compmat/na3alh6/H.pbe-rrkjus_psl.1.0.0.UPF
     MD5 check sum: 3f4114867bd07edc7f1424d066fc1888
     Pseudo is Ultrasoft, Zval =  1.0
     Generated using &quot;atomic&quot; code by A. Dal Corso  v.6.3MaX
     Using radial grid of  929 points,  2 beta functions with:
                l(1) =   0
                l(2) =   0
     Q(r) pseudized with 0 coefficients

     PseudoPot. # 3 for Na read from file:
     /home/garima.iitr/.cache/.es/compmat/na3alh6/na_pbe_v1.5.uspp.F.UPF
     MD5 check sum: 44600605ef58000f06b90626533354dc
     Pseudo is Ultrasoft, Zval =  9.0
     Generated by new atomic code, or converted to UPF format
     Using radial grid of  819 points,  5 beta functions with:
                l(1) =   0
                l(2) =   0
                l(3) =   1
                l(4) =   1
                l(5) =   2
     Q(r) pseudized with  8 coefficients,  rinner =    1.250   1.250   1.250
                                                       1.250   1.250

     atomic species   valence    mass     pseudopotential
        Al             3.00    26.98100     Al( 1.00)
        H              1.00     1.00750     H ( 1.00)
        Na             9.00    22.98900     Na( 1.00)

      4 Sym. Ops., with inversion, found ( 2 have fractional translation)

   Cartesian axes

     site n.     atom                  positions (alat units)
         1           Al  tau(   1) = (   0.5000000   0.0000000   0.0000000  )
         2           Al  tau(   2) = (   0.0002188   0.5185901   0.7197441  )
         3           Na  tau(   3) = (  -0.4997812   0.0000000   0.7197441  )
         4           Na  tau(   4) = (   0.0000000   0.5185901   0.0000000  )
         5           Na  tau(   5) = (   0.0112779   0.9881424   0.3547907  )
         6           Na  tau(   6) = (  -0.0108402   0.0490379   1.0846976  )
         7           Na  tau(   7) = (   0.4889410   0.4695522   0.3649535  )
         8           Na  tau(   8) = (  -0.4885033   0.5676280   1.0745348  )
         9           H   tau(   9) = (  -0.1610436   0.7957662   0.8104031  )
        10           H   tau(  10) = (   0.1614812   0.2414141   0.6290852  )
        11           H   tau(  11) = (  -0.3382999   0.2771761   1.3488293  )
        12           H   tau(  12) = (   0.3387376   0.7600042   0.0906590  )
        13           H   tau(  13) = (  -0.2276214   0.8611500   1.3769569  )
        14           H   tau(  14) = (   0.2280590   0.1760302   0.0625314  )
        15           H   tau(  15) = (  -0.2717222   0.3425599   0.7822755  )
        16           H   tau(  16) = (   0.2721598   0.6946204   0.6572128  )
        17           H   tau(  17) = (  -0.5991672   0.9877068   1.1274936  )
        18           H   tau(  18) = (   0.5996049   0.0494735   0.3119947  )
        19           H   tau(  19) = (   0.0998237   0.4691166   1.0317388  )
        20           H   tau(  20) = (  -0.0993860   0.5680636   0.4077495  )

     number of k points=    56  Marzari-Vanderbilt smearing, width (Ry)=  0.0050
                       cart. coord. in units 2pi/alat
        k(    1) = (   0.0000000   0.0000000   0.0000000), wk =   0.0138889
        k(    2) = (   0.0000000   0.0000000   0.1736728), wk =   0.0277778
        k(    3) = (   0.0000000   0.0000000  -0.3473457), wk =   0.0138889
        k(    4) = (   0.0000000   0.1606921   0.0000000), wk =   0.0277778
        k(    5) = (   0.0000000   0.1606921   0.1736728), wk =   0.0555556
        k(    6) = (   0.0000000   0.1606921  -0.3473457), wk =   0.0277778
        k(    7) = (   0.0000000   0.3213842   0.0000000), wk =   0.0277778
        k(    8) = (   0.0000000   0.3213842   0.1736728), wk =   0.0555556
        k(    9) = (   0.0000000   0.3213842  -0.3473457), wk =   0.0277778
        k(   10) = (   0.0000000  -0.4820763   0.0000000), wk =   0.0138889
        k(   11) = (   0.0000000  -0.4820763   0.1736728), wk =   0.0277778
        k(   12) = (   0.0000000  -0.4820763  -0.3473457), wk =   0.0138889
        k(   13) = (   0.1666667   0.0000000   0.1157312), wk =   0.0277778
        k(   14) = (   0.1666667   0.0000000   0.2894040), wk =   0.0277778
        k(   15) = (   0.1666667   0.0000000  -0.2316144), wk =   0.0277778
        k(   16) = (   0.1666667   0.0000000  -0.0579416), wk =   0.0277778
        k(   17) = (   0.1666667   0.1606921   0.1157312), wk =   0.0555556
        k(   18) = (   0.1666667   0.1606921   0.2894040), wk =   0.0555556
        k(   19) = (   0.1666667   0.1606921  -0.2316144), wk =   0.0555556
        k(   20) = (   0.1666667   0.1606921  -0.0579416), wk =   0.0555556
        k(   21) = (   0.1666667   0.3213842   0.1157312), wk =   0.0555556
        k(   22) = (   0.1666667   0.3213842   0.2894040), wk =   0.0555556
        k(   23) = (   0.1666667   0.3213842  -0.2316144), wk =   0.0555556
        k(   24) = (   0.1666667   0.3213842  -0.0579416), wk =   0.0555556
        k(   25) = (   0.1666667  -0.4820763   0.1157312), wk =   0.0277778
        k(   26) = (   0.1666667  -0.4820763   0.2894040), wk =   0.0277778
        k(   27) = (   0.1666667  -0.4820763  -0.2316144), wk =   0.0277778
        k(   28) = (   0.1666667  -0.4820763  -0.0579416), wk =   0.0277778
        k(   29) = (   0.3333333   0.0000000   0.2314624), wk =   0.0277778
        k(   30) = (   0.3333333   0.0000000   0.4051353), wk =   0.0277778
        k(   31) = (   0.3333333   0.0000000  -0.1158832), wk =   0.0277778
        k(   32) = (   0.3333333   0.0000000   0.0577896), wk =   0.0277778
        k(   33) = (   0.3333333   0.1606921   0.2314624), wk =   0.0555556
        k(   34) = (   0.3333333   0.1606921   0.4051353), wk =   0.0555556
        k(   35) = (   0.3333333   0.1606921  -0.1158832), wk =   0.0555556
        k(   36) = (   0.3333333   0.1606921   0.0577896), wk =   0.0555556
        k(   37) = (   0.3333333   0.3213842   0.2314624), wk =   0.0555556
        k(   38) = (   0.3333333   0.3213842   0.4051353), wk =   0.0555556
        k(   39) = (   0.3333333   0.3213842  -0.1158832), wk =   0.0555556
        k(   40) = (   0.3333333   0.3213842   0.0577896), wk =   0.0555556
        k(   41) = (   0.3333333  -0.4820763   0.2314624), wk =   0.0277778
        k(   42) = (   0.3333333  -0.4820763   0.4051353), wk =   0.0277778
        k(   43) = (   0.3333333  -0.4820763  -0.1158832), wk =   0.0277778
        k(   44) = (   0.3333333  -0.4820763   0.0577896), wk =   0.0277778
        k(   45) = (  -0.5000000   0.0000000  -0.3471936), wk =   0.0138889
        k(   46) = (  -0.5000000   0.0000000  -0.1735208), wk =   0.0277778
        k(   47) = (  -0.5000000   0.0000000  -0.6945393), wk =   0.0138889
        k(   48) = (  -0.5000000   0.1606921  -0.3471936), wk =   0.0277778
        k(   49) = (  -0.5000000   0.1606921  -0.1735208), wk =   0.0555556
        k(   50) = (  -0.5000000   0.1606921  -0.6945393), wk =   0.0277778
        k(   51) = (  -0.5000000   0.3213842  -0.3471936), wk =   0.0277778
        k(   52) = (  -0.5000000   0.3213842  -0.1735208), wk =   0.0555556
        k(   53) = (  -0.5000000   0.3213842  -0.6945393), wk =   0.0277778
        k(   54) = (  -0.5000000  -0.4820763  -0.3471936), wk =   0.0138889
        k(   55) = (  -0.5000000  -0.4820763  -0.1735208), wk =   0.0277778
        k(   56) = (  -0.5000000  -0.4820763  -0.6945393), wk =   0.0138889

     Initial potential from superposition of free atoms

     starting charge      71.9576, renormalised to      72.0000
     Starting wfcs are   50 randomized atomic wfcs
     Checking if some PAW data can be deallocated...

     Self-consistent Calculation

     iteration #  1     ecut=    75.00 Ry     beta= 0.70
     Davidson diagonalization with overlap
     ethr =  1.00E-02,  avg # of iterations =  5.6

     total energy              =    -665.23195712 Ry
     estimated scf accuracy    <       0.94135897 Ry

[...]

     iteration #  3     ecut=    75.00 Ry     beta= 0.70
     Davidson diagonalization with overlap
     c_bands:  1 eigenvalues not converged
     ethr =  2.97E-05,  avg # of iterations =  9.4

[...]

     End of self-consistent calculation

          k = 0.0000 0.0000 0.0000 ( 16357 PWs)   bands (ev):

   -49.1170 -49.1163 -49.1157 -49.1153 -48.9998 -48.9995 -21.0693 -21.0642
   -21.0605 -21.0546 -21.0519 -21.0512 -21.0486 -21.0474 -21.0365 -21.0324
   -21.0308 -21.0281 -20.9361 -20.9310 -20.9302 -20.9284 -20.9222 -20.9197
    -5.1793  -4.1881  -1.8580  -1.1091  -0.9974  -0.4517  -0.4149  -0.3959
     0.0881   0.8983   1.1950   1.5874   4.5263   5.4549   6.1369   6.8566
     7.0378   7.4231   7.7870

[...]

          k =-0.5000 0.0000-0.3472 ( 16388 PWs)   bands (ev):

[...]

     the Fermi energy is     3.6357 ev

!    total energy              =    -665.33746617 Ry
     estimated scf accuracy    <          3.0E-09 Ry
     smearing contrib. (-TS)   =       0.00000000 Ry
     internal energy E=F+TS    =    -665.33746617 Ry

     The total energy is F=E-TS. E is the sum of the following terms:
     one-electron contribution =    -481.97996712 Ry
     hartree contribution      =     254.78207873 Ry
     xc contribution           =    -100.22940228 Ry
     ewald contribution        =    -268.57364766 Ry
     one-center paw contrib.   =     -69.33652785 Ry

     convergence has been achieved in   9 iterations

     Forces acting on atoms (cartesian axes, Ry/au):

     atom    1 type  1   force =     0.00000000    0.00000000    0.00000000
     atom    2 type  1   force =     0.00000000    0.00000000    0.00000000
     atom    3 type  3   force =     0.00000000    0.00000000    0.00000000
     atom    4 type  3   force =     0.00000000    0.00000000    0.00000000
     atom    5 type  3   force =    -0.00045243    0.00044512    0.00033193
     atom    6 type  3   force =     0.00045243   -0.00044512   -0.00033193
     atom    7 type  3   force =     0.00045243    0.00044512   -0.00033193
     atom    8 type  3   force =    -0.00045243   -0.00044512    0.00033193
     atom    9 type  2   force =    -0.00090887    0.00190195    0.00069404
     atom   10 type  2   force =     0.00090887   -0.00190195   -0.00069404
     atom   11 type  2   force =     0.00090887    0.00190195   -0.00069404
     atom   12 type  2   force =    -0.00090887   -0.00190195    0.00069404
     atom   13 type  2   force =     0.00194811   -0.00124866   -0.00040327
     atom   14 type  2   force =    -0.00194811    0.00124866    0.00040327
     atom   15 type  2   force =    -0.00194811   -0.00124866    0.00040327
     atom   16 type  2   force =     0.00194811    0.00124866   -0.00040327
     atom   17 type  2   force =    -0.00088328   -0.00008424   -0.00228628
     atom   18 type  2   force =     0.00088328    0.00008424    0.00228628
     atom   19 type  2   force =     0.00088328   -0.00008424    0.00228628
     atom   20 type  2   force =    -0.00088328    0.00008424   -0.00228628

     Total force =     0.008239     Total SCF correction =     0.000021

     Computing stress (Cartesian axis) and pressure

          total   stress  (Ry/bohr**3)                   (kbar)     P=       14.99
   0.00010178   0.00000000   0.00000018           14.97        0.00        0.03
   0.00000000   0.00010085   0.00000000            0.00       14.84        0.00
   0.00000018   0.00000000   0.00010303            0.03        0.00       15.16

     BFGS Geometry Optimization
     Energy error            =      0.0E+00 Ry
     Gradient error          =      2.3E-03 Ry/Bohr

     number of scf cycles    =   1
     number of bfgs steps    =   0

     energy             new  =    -665.3374661710 Ry

     new trust radius        =       0.0024524227 bohr
     new conv_thr            =       0.0000000100 Ry

ATOMIC_POSITIONS (crystal)
Al            0.5000000000        0.0000000000        0.0000000000
Al            0.5000000000        0.5000000000        0.5000000000
Na           -0.0000000000        0.0000000000        0.5000000000
Na            0.0000000000        0.5000000000        0.0000000000
Na            0.2576178124        0.9527629032        0.2464930516
Na            0.7423821876        0.0472370968        0.7535069484
Na            0.7423821876        0.4527629032        0.2535069484
Na            0.2576178124        0.5472370968        0.7464930516
H             0.4016473188        0.7674233211        0.5630281993
H             0.5983526812        0.2325766789        0.4369718007
H             0.5983526812        0.2674233211        0.9369718007
H             0.4016473188        0.7325766789        0.0630281993
H             0.7286867575        0.8301596470        0.9565319939
H             0.2713132425        0.1698403530        0.0434680061
H             0.2713132425        0.3301596470        0.5434680061
H             0.7286867575        0.6698403530        0.4565319939
H             0.1835029913        0.9522918800        0.7831012227
H             0.8164970087        0.0477081200        0.2168987773
H             0.8164970087        0.4522918800        0.7168987773
H             0.1835029913        0.5477081200        0.2831012227

     Writing config-only to output data dir temp/na3alh6.save/
     NEW-OLD atomic charge density approx. for the potential

[...]

     Threshold (ethr) on eigenvalues was too large:
     Diagonalizing with lowered threshold

     Davidson diagonalization with overlap
     ethr =  9.19E-09,  avg # of iterations =  2.0

[...]

     Energy error            =      6.2E-05 Ry
     Gradient error          =      1.9E-03 Ry/Bohr

[...]

     energy             old  =    -665.3374661710 Ry
     energy             new  =    -665.3375277756 Ry

     CASE: energy            _new < energy            _old

     WARNING: bfgs curvature condition failed, Theta= 0.981
     new trust radius        =       0.0026976650 bohr
     new conv_thr            =            1.0E-10 Ry

[...]

     number of scf cycles    =   3
     number of bfgs steps    =   2

     energy             old  =    -665.3375277756 Ry
     energy             new  =    -665.3375809964 Ry

     CASE: energy            _new < energy            _old

     new trust radius        =       0.0040464975 bohr
     new conv_thr            =            1.0E-10 Ry

ATOMIC_POSITIONS (crystal)
Al            0.5000000000        0.0000000000        0.0000000000
Al            0.5000000000        0.5000000000        0.5000000000
Na           -0.0000000000        0.0000000000        0.5000000000
Na            0.0000000000        0.5000000000        0.0000000000
Na            0.2575387641        0.9529061849        0.2465724682
Na            0.7424612359        0.0470938151        0.7534275318
Na            0.7424612359        0.4529061849        0.2534275318
Na            0.2575387641        0.5470938151        0.7465724682
H             0.4015475728        0.7679252051        0.5631617623
H             0.5984524272        0.2320747949        0.4368382377
H             0.5984524272        0.2679252051        0.9368382377
H             0.4015475728        0.7320747949        0.0631617623
H             0.7291333023        0.8298476525        0.9564502687
H             0.2708666977        0.1701523475        0.0435497313
H             0.2708666977        0.3298476525        0.5435497313
H             0.7291333023        0.6701523475        0.4564502687
H             0.1828129401        0.9522814922        0.7826684429
H             0.8171870599        0.0477185078        0.2173315571
H             0.8171870599        0.4522814922        0.7173315571
H             0.1828129401        0.5477185078        0.2826684429

     Writing config-only to output data dir temp/na3alh6.save/
     NEW-OLD atomic charge density approx. for the potential

     Self-consistent Calculation

[...]

     Threshold (ethr) on eigenvalues was too large:
     Diagonalizing with lowered threshold

     Davidson diagonalization with overlap
     ethr =  2.35E-08,  avg # of iterations =  2.0

[...]

     total energy              =    -665.33763309 Ry
     estimated scf accuracy    <          2.0E-10 Ry

     iteration #  6     ecut=    75.00 Ry     beta= 0.70
     Davidson diagonalization with overlap
     ethr =  2.78E-13,  avg # of iterations =  4.0

     End of self-consistent calculation

[...]

          k = 0.3333-0.4821 0.0578 ( 16368 PWs)   bands (ev):

[...]

          k =-0.5000-0.4821-0.6945 ( 16352 PWs)   bands (ev):

   -49.1113 -49.1113 -49.1109 -49.1109 -48.9891 -48.9891 -21.0678 -21.0678
   -21.0555 -21.0555 -21.0515 -21.0515 -21.0367 -21.0367 -21.0252 -21.0252
   -21.0245 -21.0245 -20.9253 -20.9253 -20.9163 -20.9163 -20.9109 -20.9109
    -4.1801  -4.1801  -1.8612  -1.8612  -1.0068  -1.0068  -0.9685  -0.9685
     0.1421   0.1421   1.1986   1.1986   6.0694   6.0694   7.5131   7.5131
     8.2631   8.2632   8.4796

     the Fermi energy is     3.6419 ev

!    total energy              =    -665.33763309 Ry
     estimated scf accuracy    <          6.1E-11 Ry
     smearing contrib. (-TS)   =      -0.00000000 Ry
     internal energy E=F+TS    =    -665.33763309 Ry

     The total energy is F=E-TS. E is the sum of the following terms:
     one-electron contribution =    -482.05582056 Ry
     hartree contribution      =     254.82726405 Ry
     xc contribution           =    -100.22033552 Ry
     ewald contribution        =    -268.55382369 Ry
     one-center paw contrib.   =     -69.33491736 Ry

     convergence has been achieved in   6 iterations

     Forces acting on atoms (cartesian axes, Ry/au):

     atom    1 type  1   force =     0.00000000    0.00000000    0.00000000
     atom    2 type  1   force =     0.00000000    0.00000000    0.00000000
     atom    3 type  3   force =     0.00000000    0.00000000    0.00000000
     atom    4 type  3   force =     0.00000000    0.00000000    0.00000000
     atom    5 type  3   force =    -0.00035313    0.00030516    0.00025188
     atom    6 type  3   force =     0.00035313   -0.00030516   -0.00025188
     atom    7 type  3   force =     0.00035313    0.00030516   -0.00025188
     atom    8 type  3   force =    -0.00035313   -0.00030516    0.00025188
     atom    9 type  2   force =    -0.00019101    0.00059558    0.00022683
     atom   10 type  2   force =     0.00019101   -0.00059558   -0.00022683
     atom   11 type  2   force =     0.00019101    0.00059558   -0.00022683
     atom   12 type  2   force =    -0.00019101   -0.00059558    0.00022683
     atom   13 type  2   force =     0.00058367   -0.00028268   -0.00017411
     atom   14 type  2   force =    -0.00058367    0.00028268    0.00017411
     atom   15 type  2   force =    -0.00058367   -0.00028268    0.00017411
     atom   16 type  2   force =     0.00058367    0.00028268   -0.00017411
     atom   17 type  2   force =    -0.00036680    0.00004400   -0.00069716
     atom   18 type  2   force =     0.00036680   -0.00004400    0.00069716
     atom   19 type  2   force =     0.00036680    0.00004400    0.00069716
     atom   20 type  2   force =    -0.00036680   -0.00004400   -0.00069716

     Total force =     0.002681     Total SCF correction =     0.000004

     Computing stress (Cartesian axis) and pressure

          total   stress  (Ry/bohr**3)                   (kbar)     P=       13.89
   0.00009473   0.00000000   0.00000010           13.93        0.00        0.02
   0.00000000   0.00009335   0.00000000            0.00       13.73        0.00
   0.00000010   0.00000000   0.00009520            0.02        0.00       14.00

     Energy error            =      5.2E-05 Ry
     Gradient error          =      7.0E-04 Ry/Bohr

     bfgs converged in   4 scf cycles and   3 bfgs steps
     (criteria: energy <  1.0E-04 Ry, force <  1.0E-03 Ry/Bohr)

     End of BFGS Geometry Optimization

     Final energy             =    -665.3376330857 Ry

     File temp/na3alh6.bfgs deleted, as requested
Begin final coordinates

ATOMIC_POSITIONS (crystal)
Al            0.5000000000        0.0000000000        0.0000000000
Al            0.5000000000        0.5000000000        0.5000000000
Na           -0.0000000000        0.0000000000        0.5000000000
Na            0.0000000000        0.5000000000        0.0000000000
Na            0.2575387641        0.9529061849        0.2465724682
Na            0.7424612359        0.0470938151        0.7534275318
Na            0.7424612359        0.4529061849        0.2534275318
Na            0.2575387641        0.5470938151        0.7465724682
H             0.4015475728        0.7679252051        0.5631617623
H             0.5984524272        0.2320747949        0.4368382377
H             0.5984524272        0.2679252051        0.9368382377
H             0.4015475728        0.7320747949        0.0631617623
H             0.7291333023        0.8298476525        0.9564502687
H             0.2708666977        0.1701523475        0.0435497313
H             0.2708666977        0.3298476525        0.5435497313
H             0.7291333023        0.6701523475        0.4564502687
H             0.1828129401        0.9522814922        0.7826684429
H             0.8171870599        0.0477185078        0.2173315571
H             0.8171870599        0.4522814922        0.7173315571
H             0.1828129401        0.5477185078        0.2826684429
End final coordinates

     General routines

     Parallel routines

   This run was terminated on:  19:15:46  31Oct2023

   JOB DONE.
Job execution finished at: Tue Oct 31 19:15:47 IST 2023