     Program PWSCF v.7.1 starts on 31Oct2023 at 19:57:45

     Reading input from na3alh6.in

     Current dimensions of program PWSCF are:
     Max number of different atomic species (ntypx) = 10
     Max number of k-points (npk) =  40000
     Max angular momentum in pseudopotentials (lmaxx) =  4
     file Al.pbe-n-kjpaw_psl.1.0.0.UPF: wavefunction(s)  3S 3P renormalized

     IMPORTANT: XC functional enforced from input :
     Exchange-correlation= PBE
                           (   1   4   3   4   0   0   0)
     Any further DFT definition will be discarded
     Please, verify this is what you really want

     Message from routine setup:
     using ibrav=0 with symmetry is DISCOURAGED, use correct ibrav instead

     K-points division:     npool     =       3
     R & G space division:  proc/nbgrp/npool/nimage =      48
     Subspace diagonalization in iterative solution of the eigenvalue problem:
     a serial algorithm will be used

     Using Slab Decomposition

     bravais-lattice index     =            0
     lattice parameter (alat)  =      10.0031  a.u.
     unit-cell volume          =    1494.3871 (a.u.)^3
     number of atoms/cell      =           20
     number of atomic types    =            3
     number of electrons       =        72.00
     number of Kohn-Sham states=           43
     kinetic-energy cutoff     =      75.0000  Ry
     charge density cutoff     =     375.0000  Ry
     scf convergence threshold =      1.0E-08
     mixing beta               =       0.7000
     number of iterations used =            8  plain     mixing
     energy convergence thresh.=      1.0E-04
     force convergence thresh. =      1.0E-03
     press convergence thresh. =      5.0E-01
     Exchange-correlation= PBE
                           (   1   4   3   4   0   0   0)
     nstep                     =           50

     celldm(1)=  10.003076  celldm(2)=   0.000000  celldm(3)=   0.000000
     celldm(4)=   0.000000  celldm(5)=   0.000000  celldm(6)=   0.000000

     crystal axes: (cart. coord. in units of alat)
               a(1) = (   1.000000   0.000000   0.000000 )
               a(2) = (   0.000000   1.037180   0.000000 )
               a(3) = (  -0.999562   0.000000   1.439488 )

     reciprocal axes: (cart. coord. in units 2 pi/alat)
               b(1) = (  1.000000  0.000000  0.694387 )
               b(2) = (  0.000000  0.964153  0.000000 )
               b(3) = (  0.000000  0.000000  0.694691 )

     PseudoPot. # 1 for Al read from file:
     /home/garima.iitr/.cache/.es/compmat/na3alh6/Al.pbe-n-kjpaw_psl.1.0.0.UPF
     MD5 check sum: 502b6b27b9c6270cab5dd1084b96fa6d
     Pseudo is Projector augmented-wave + core cor, Zval =  3.0
     Generated using &quot;atomic&quot; code by A. Dal Corso  v.6.3
     Shape of augmentation charge: PSQ
     Using radial grid of 1135 points,  6 beta functions with:
                l(1) =   0
                l(2) =   0
                l(3) =   1
                l(4) =   1
                l(5) =   2
                l(6) =   2
     Q(r) pseudized with 0 coefficients

     PseudoPot. # 2 for H  read from file:
     /home/garima.iitr/.cache/.es/compmat/na3alh6/H.pbe-rrkjus_psl.1.0.0.UPF
     MD5 check sum: 3f4114867bd07edc7f1424d066fc1888
     Pseudo is Ultrasoft, Zval =  1.0
     Generated using &quot;atomic&quot; code by A. Dal Corso  v.6.3MaX
     Using radial grid of  929 points,  2 beta functions with:
                l(1) =   0
                l(2) =   0
     Q(r) pseudized with 0 coefficients

     PseudoPot. # 3 for Na read from file:
     /home/garima.iitr/.cache/.es/compmat/na3alh6/na_pbe_v1.5.uspp.F.UPF
     MD5 check sum: 44600605ef58000f06b90626533354dc
     Pseudo is Ultrasoft, Zval =  9.0
     Generated by new atomic code, or converted to UPF format
     Using radial grid of  819 points,  5 beta functions with:
                l(1) =   0
                l(2) =   0
                l(3) =   1
                l(4) =   1
                l(5) =   2
     Q(r) pseudized with  8 coefficients,  rinner =    1.250   1.250   1.250
                                                       1.250   1.250

     atomic species   valence    mass     pseudopotential
        Al             3.00    26.98100     Al( 1.00)
        H              1.00     1.00750     H ( 1.00)
        Na             9.00    22.98900     Na( 1.00)

      4 Sym. Ops., with inversion, found ( 2 have fractional translation)

   Cartesian axes

     site n.     atom                  positions (alat units)
         1           Al  tau(   1) = (   0.5000000   0.0000000   0.0000000  )
         2           Al  tau(   2) = (   0.0002188   0.5185901   0.7197441  )
         3           Na  tau(   3) = (  -0.4997812   0.0000000   0.7197441  )
         4           Na  tau(   4) = (   0.0000000   0.5185901   0.0000000  )
         5           Na  tau(   5) = (   0.0110742   0.9883355   0.3549382  )
         6           Na  tau(   6) = (  -0.0106366   0.0488448   1.0845501  )
         7           Na  tau(   7) = (   0.4891446   0.4697454   0.3648060  )
         8           Na  tau(   8) = (  -0.4887070   0.5674349   1.0746823  )
         9           H   tau(   9) = (  -0.1613677   0.7964769   0.8106648  )
        10           H   tau(  10) = (   0.1618054   0.2407034   0.6288235  )
        11           H   tau(  11) = (  -0.3379758   0.2778867   1.3485677  )
        12           H   tau(  12) = (   0.3384135   0.7592935   0.0909206  )
        13           H   tau(  13) = (  -0.2268984   0.8607016   1.3767990  )
        14           H   tau(  14) = (   0.2273360   0.1764787   0.0626893  )
        15           H   tau(  15) = (  -0.2724452   0.3421115   0.7824335  )
        16           H   tau(  16) = (   0.2728828   0.6950688   0.6570548  )
        17           H   tau(  17) = (  -0.5995130   0.9876876   1.1266421  )
        18           H   tau(  18) = (   0.5999506   0.0494927   0.3128462  )
        19           H   tau(  19) = (   0.1001694   0.4690974   1.0325904  )
        20           H   tau(  20) = (  -0.0997318   0.5680828   0.4068979  )

     number of k points=    56  Marzari-Vanderbilt smearing, width (Ry)=  0.0050
                       cart. coord. in units 2pi/alat
        k(    1) = (   0.0000000   0.0000000   0.0000000), wk =   0.0138889
        k(    2) = (   0.0000000   0.0000000   0.1736728), wk =   0.0277778
        k(    3) = (   0.0000000   0.0000000  -0.3473457), wk =   0.0138889
        k(    4) = (   0.0000000   0.1606921   0.0000000), wk =   0.0277778
        k(    5) = (   0.0000000   0.1606921   0.1736728), wk =   0.0555556
        k(    6) = (   0.0000000   0.1606921  -0.3473457), wk =   0.0277778
        k(    7) = (   0.0000000   0.3213842   0.0000000), wk =   0.0277778
        k(    8) = (   0.0000000   0.3213842   0.1736728), wk =   0.0555556
        k(    9) = (   0.0000000   0.3213842  -0.3473457), wk =   0.0277778
        k(   10) = (   0.0000000  -0.4820763   0.0000000), wk =   0.0138889
        k(   11) = (   0.0000000  -0.4820763   0.1736728), wk =   0.0277778
        k(   12) = (   0.0000000  -0.4820763  -0.3473457), wk =   0.0138889
        k(   13) = (   0.1666667   0.0000000   0.1157312), wk =   0.0277778
        k(   14) = (   0.1666667   0.0000000   0.2894040), wk =   0.0277778
        k(   15) = (   0.1666667   0.0000000  -0.2316144), wk =   0.0277778
        k(   16) = (   0.1666667   0.0000000  -0.0579416), wk =   0.0277778
        k(   17) = (   0.1666667   0.1606921   0.1157312), wk =   0.0555556
        k(   18) = (   0.1666667   0.1606921   0.2894040), wk =   0.0555556
        k(   19) = (   0.1666667   0.1606921  -0.2316144), wk =   0.0555556
        k(   20) = (   0.1666667   0.1606921  -0.0579416), wk =   0.0555556
        k(   21) = (   0.1666667   0.3213842   0.1157312), wk =   0.0555556
        k(   22) = (   0.1666667   0.3213842   0.2894040), wk =   0.0555556
        k(   23) = (   0.1666667   0.3213842  -0.2316144), wk =   0.0555556
        k(   24) = (   0.1666667   0.3213842  -0.0579416), wk =   0.0555556
        k(   25) = (   0.1666667  -0.4820763   0.1157312), wk =   0.0277778
        k(   26) = (   0.1666667  -0.4820763   0.2894040), wk =   0.0277778
        k(   27) = (   0.1666667  -0.4820763  -0.2316144), wk =   0.0277778
        k(   28) = (   0.1666667  -0.4820763  -0.0579416), wk =   0.0277778
        k(   29) = (   0.3333333   0.0000000   0.2314624), wk =   0.0277778
        k(   30) = (   0.3333333   0.0000000   0.4051353), wk =   0.0277778
        k(   31) = (   0.3333333   0.0000000  -0.1158832), wk =   0.0277778
        k(   32) = (   0.3333333   0.0000000   0.0577896), wk =   0.0277778
        k(   33) = (   0.3333333   0.1606921   0.2314624), wk =   0.0555556
        k(   34) = (   0.3333333   0.1606921   0.4051353), wk =   0.0555556
        k(   35) = (   0.3333333   0.1606921  -0.1158832), wk =   0.0555556
        k(   36) = (   0.3333333   0.1606921   0.0577896), wk =   0.0555556
        k(   37) = (   0.3333333   0.3213842   0.2314624), wk =   0.0555556
        k(   38) = (   0.3333333   0.3213842   0.4051353), wk =   0.0555556
        k(   39) = (   0.3333333   0.3213842  -0.1158832), wk =   0.0555556
        k(   40) = (   0.3333333   0.3213842   0.0577896), wk =   0.0555556
        k(   41) = (   0.3333333  -0.4820763   0.2314624), wk =   0.0277778
        k(   42) = (   0.3333333  -0.4820763   0.4051353), wk =   0.0277778
        k(   43) = (   0.3333333  -0.4820763  -0.1158832), wk =   0.0277778
        k(   44) = (   0.3333333  -0.4820763   0.0577896), wk =   0.0277778
        k(   45) = (  -0.5000000   0.0000000  -0.3471936), wk =   0.0138889
        k(   46) = (  -0.5000000   0.0000000  -0.1735208), wk =   0.0277778
        k(   47) = (  -0.5000000   0.0000000  -0.6945393), wk =   0.0138889
        k(   48) = (  -0.5000000   0.1606921  -0.3471936), wk =   0.0277778
        k(   49) = (  -0.5000000   0.1606921  -0.1735208), wk =   0.0555556
        k(   50) = (  -0.5000000   0.1606921  -0.6945393), wk =   0.0277778
        k(   51) = (  -0.5000000   0.3213842  -0.3471936), wk =   0.0277778
        k(   52) = (  -0.5000000   0.3213842  -0.1735208), wk =   0.0555556
        k(   53) = (  -0.5000000   0.3213842  -0.6945393), wk =   0.0277778
        k(   54) = (  -0.5000000  -0.4820763  -0.3471936), wk =   0.0138889
        k(   55) = (  -0.5000000  -0.4820763  -0.1735208), wk =   0.0277778
        k(   56) = (  -0.5000000  -0.4820763  -0.6945393), wk =   0.0138889

     Initial potential from superposition of free atoms

     starting charge      71.9576, renormalised to      72.0000
     Starting wfcs are   50 randomized atomic wfcs
     Checking if some PAW data can be deallocated...

     Self-consistent Calculation

     iteration #  1     ecut=    75.00 Ry     beta= 0.70
     Davidson diagonalization with overlap
     ethr =  1.00E-02,  avg # of iterations =  5.6

     total energy              =    -665.23392460 Ry
     estimated scf accuracy    <       0.93404574 Ry

[...]

     End of self-consistent calculation

          k = 0.0000 0.0000 0.0000 ( 16357 PWs)   bands (ev):

   -49.1121 -49.1114 -49.1108 -49.1104 -48.9893 -48.9891 -21.0638 -21.0590
[...]

[...]

     Threshold (ethr) on eigenvalues was too large:
     Diagonalizing with lowered threshold

     Davidson diagonalization with overlap
     ethr =  9.81E-08,  avg # of iterations =  1.0

[...]

     Energy error            =      2.1E-06 Ry
     Gradient error          =      2.3E-04 Ry/Bohr
     Cell gradient error     =      2.4E-01 kbar

     bfgs converged in   9 scf cycles and   8 bfgs steps
     (criteria: energy <  1.0E-04 Ry, force <  1.0E-03 Ry/Bohr, cell <  5.0E-01 kbar)

     End of BFGS Geometry Optimization

     Final enthalpy           =    -665.3403583830 Ry

     File temp/na3alh6.bfgs deleted, as requested
Begin final coordinates
     new unit-cell volume =   1555.91141 a.u.^3 (   230.56228 Ang^3 )
     density =      1.46913 g/cm^3

CELL_PARAMETERS (alat= 10.00307627)
   1.013534097   0.000000000   0.000296189
   0.000000000   1.050516094   0.000000000
  -1.012664219   0.000000000   1.459671107

ATOMIC_POSITIONS (crystal)
Al            0.5000000000        0.0000000000        0.0000000000
Al            0.5000000000        0.5000000000        0.5000000000
Na            0.0000000000        0.0000000000        0.5000000000
Na            0.0000000000        0.5000000000        0.0000000000
Na            0.2571111568        0.9533455379        0.2466606545
Na            0.7428888432        0.0466544621        0.7533393455
Na            0.7428888432        0.4533455379        0.2533393455
Na            0.2571111568        0.5466544621        0.7466606545
H             0.4024939434        0.7664516638        0.5629591277
H             0.5975060566        0.2335483362        0.4370408723
H             0.5975060566        0.2664516638        0.9370408723
H             0.4024939434        0.7335483362        0.0629591277
H             0.7275713614        0.8311139850        0.9565858635
H             0.2724286386        0.1688860150        0.0434141365
H             0.2724286386        0.3311139850        0.5434141365
H             0.7275713614        0.6688860150        0.4565858635
H             0.1845234334        0.9525576877        0.7840252624
H             0.8154765666        0.0474423123        0.2159747376
H             0.8154765666        0.4525576877        0.7159747376
H             0.1845234334        0.5474423123        0.2840252624
End final coordinates

     Writing config-only to output data dir temp/na3alh6.save/

     Final scf calculation at the relaxed structure.
     The G-vectors are recalculated for the final unit cell
     Results may differ from those at the preceding step.

     Using Slab Decomposition

     bravais-lattice index     =            0
     lattice parameter (alat)  =      10.0031  a.u.
     unit-cell volume          =    1555.9114 (a.u.)^3
     number of atoms/cell      =           20
     number of atomic types    =            3
     number of electrons       =        72.00
     number of Kohn-Sham states=           43
     kinetic-energy cutoff     =      75.0000  Ry
     charge density cutoff     =     375.0000  Ry
     scf convergence threshold =      1.0E-10
     mixing beta               =       0.7000
     number of iterations used =            8  plain     mixing
     press convergence thresh. =      5.0E-01
     Exchange-correlation= PBE
                           (   1   4   3   4   0   0   0)

     celldm(1)=  10.003076  celldm(2)=   0.000000  celldm(3)=   0.000000
     celldm(4)=   0.000000  celldm(5)=   0.000000  celldm(6)=   0.000000

     crystal axes: (cart. coord. in units of alat)
               a(1) = (   1.013534   0.000000   0.000296 )
               a(2) = (   0.000000   1.050516   0.000000 )
               a(3) = (  -1.012664   0.000000   1.459671 )

     reciprocal axes: (cart. coord. in units 2 pi/alat)
               b(1) = (  0.986447  0.000000  0.684359 )
               b(2) = (  0.000000  0.951913  0.000000 )
               b(3) = ( -0.000200  0.000000  0.684947 )

     PseudoPot. # 1 for Al read from file:
     /home/garima.iitr/.cache/.es/compmat/na3alh6/Al.pbe-n-kjpaw_psl.1.0.0.UPF
     MD5 check sum: 502b6b27b9c6270cab5dd1084b96fa6d
     Pseudo is Projector augmented-wave + core cor, Zval =  3.0
     Generated using &quot;atomic&quot; code by A. Dal Corso  v.6.3
     Shape of augmentation charge: PSQ
     Using radial grid of 1135 points,  6 beta functions with:
                l(1) =   0
                l(2) =   0
                l(3) =   1
                l(4) =   1
                l(5) =   2
                l(6) =   2
     Q(r) pseudized with 0 coefficients

     PseudoPot. # 2 for H  read from file:
     /home/garima.iitr/.cache/.es/compmat/na3alh6/H.pbe-rrkjus_psl.1.0.0.UPF
     MD5 check sum: 3f4114867bd07edc7f1424d066fc1888
     Pseudo is Ultrasoft, Zval =  1.0
     Generated using &quot;atomic&quot; code by A. Dal Corso  v.6.3MaX
     Using radial grid of  929 points,  2 beta functions with:
                l(1) =   0
                l(2) =   0
     Q(r) pseudized with 0 coefficients

     PseudoPot. # 3 for Na read from file:
     /home/garima.iitr/.cache/.es/compmat/na3alh6/na_pbe_v1.5.uspp.F.UPF
     MD5 check sum: 44600605ef58000f06b90626533354dc
     Pseudo is Ultrasoft, Zval =  9.0
     Generated by new atomic code, or converted to UPF format
     Using radial grid of  819 points,  5 beta functions with:
                l(1) =   0
                l(2) =   0
                l(3) =   1
                l(4) =   1
                l(5) =   2
     Q(r) pseudized with  8 coefficients,  rinner =    1.250   1.250   1.250
                                                       1.250   1.250

     atomic species   valence    mass     pseudopotential
        Al             3.00    26.98100     Al( 1.00)
        H              1.00     1.00750     H ( 1.00)
        Na             9.00    22.98900     Na( 1.00)

      4 Sym. Ops., with inversion, found ( 2 have fractional translation)

   Cartesian axes

     site n.     atom                  positions (alat units)
         1           Al  tau(   1) = (   0.5067670   0.0000000   0.0001481  )
         2           Al  tau(   2) = (   0.0004349   0.5252580   0.7299836  )
         3           Na  tau(   3) = (  -0.5063321   0.0000000   0.7298356  )
         4           Na  tau(   4) = (   0.0000000   0.5252580   0.0000000  )
         5           Na  tau(   5) = (   0.0108065   1.0015048   0.3601196  )
         6           Na  tau(   6) = (  -0.0099366   0.0490113   1.0998477  )
         7           Na  tau(   7) = (   0.4963955   0.4762468   0.3700122  )
         8           Na  tau(   8) = (  -0.4955256   0.5742693   1.0899551  )
         9           H   tau(   9) = (  -0.1621472   0.8051698   0.8218544  )
        10           H   tau(  10) = (   0.1630171   0.2453463   0.6381129  )
        11           H   tau(  11) = (  -0.3433150   0.2799118   1.3679485  )
        12           H   tau(  12) = (   0.3441849   0.7706043   0.0920188  )
        13           H   tau(  13) = (  -0.2312819   0.8730986   1.3965162  )
        14           H   tau(  14) = (   0.2321518   0.1774175   0.0634511  )
        15           H   tau(  15) = (  -0.2741803   0.3478406   0.7932866  )
        16           H   tau(  16) = (   0.2750502   0.7026755   0.6666807  )
        17           H   tau(  17) = (  -0.6069335   1.0006772   1.1444737  )
        18           H   tau(  18) = (   0.6078034   0.0498389   0.3154936  )
        19           H   tau(  19) = (   0.1014713   0.4754191   1.0453292  )
        20           H   tau(  20) = (  -0.1006014   0.5750970   0.4146381  )

     number of k points=    56  Marzari-Vanderbilt smearing, width (Ry)=  0.0050
                       cart. coord. in units 2pi/alat
        k(    1) = (   0.0000000   0.0000000   0.0000000), wk =   0.0138889
        k(    2) = (  -0.0000500   0.0000000   0.1712367), wk =   0.0277778
        k(    3) = (   0.0001001   0.0000000  -0.3424735), wk =   0.0138889
        k(    4) = (   0.0000000   0.1586522   0.0000000), wk =   0.0277778
        k(    5) = (  -0.0000500   0.1586522   0.1712367), wk =   0.0555556
        k(    6) = (   0.0001001   0.1586522  -0.3424735), wk =   0.0277778
        k(    7) = (   0.0000000   0.3173044   0.0000000), wk =   0.0277778
        k(    8) = (  -0.0000500   0.3173044   0.1712367), wk =   0.0555556
        k(    9) = (   0.0001001   0.3173044  -0.3424735), wk =   0.0277778
        k(   10) = (   0.0000000  -0.4759565   0.0000000), wk =   0.0138889
        k(   11) = (  -0.0000500  -0.4759565   0.1712367), wk =   0.0277778
        k(   12) = (   0.0001001  -0.4759565  -0.3424735), wk =   0.0138889
        k(   13) = (   0.1644078   0.0000000   0.1140599), wk =   0.0277778
        k(   14) = (   0.1643577   0.0000000   0.2852966), wk =   0.0277778
        k(   15) = (   0.1645079   0.0000000  -0.2284136), wk =   0.0277778
        k(   16) = (   0.1644578   0.0000000  -0.0571769), wk =   0.0277778
        k(   17) = (   0.1644078   0.1586522   0.1140599), wk =   0.0555556
        k(   18) = (   0.1643577   0.1586522   0.2852966), wk =   0.0555556
        k(   19) = (   0.1645079   0.1586522  -0.2284136), wk =   0.0555556
        k(   20) = (   0.1644578   0.1586522  -0.0571769), wk =   0.0555556
        k(   21) = (   0.1644078   0.3173044   0.1140599), wk =   0.0555556
        k(   22) = (   0.1643577   0.3173044   0.2852966), wk =   0.0555556
        k(   23) = (   0.1645079   0.3173044  -0.2284136), wk =   0.0555556
        k(   24) = (   0.1644578   0.3173044  -0.0571769), wk =   0.0555556
        k(   25) = (   0.1644078  -0.4759565   0.1140599), wk =   0.0277778
        k(   26) = (   0.1643577  -0.4759565   0.2852966), wk =   0.0277778
        k(   27) = (   0.1645079  -0.4759565  -0.2284136), wk =   0.0277778
        k(   28) = (   0.1644578  -0.4759565  -0.0571769), wk =   0.0277778
        k(   29) = (   0.3288155   0.0000000   0.2281197), wk =   0.0277778
        k(   30) = (   0.3287655   0.0000000   0.3993564), wk =   0.0277778
        k(   31) = (   0.3289156   0.0000000  -0.1143538), wk =   0.0277778
        k(   32) = (   0.3288656   0.0000000   0.0568830), wk =   0.0277778
        k(   33) = (   0.3288155   0.1586522   0.2281197), wk =   0.0555556
        k(   34) = (   0.3287655   0.1586522   0.3993564), wk =   0.0555556
        k(   35) = (   0.3289156   0.1586522  -0.1143538), wk =   0.0555556
        k(   36) = (   0.3288656   0.1586522   0.0568830), wk =   0.0555556
        k(   37) = (   0.3288155   0.3173044   0.2281197), wk =   0.0555556
        k(   38) = (   0.3287655   0.3173044   0.3993564), wk =   0.0555556
        k(   39) = (   0.3289156   0.3173044  -0.1143538), wk =   0.0555556
        k(   40) = (   0.3288656   0.3173044   0.0568830), wk =   0.0555556
        k(   41) = (   0.3288155  -0.4759565   0.2281197), wk =   0.0277778
        k(   42) = (   0.3287655  -0.4759565   0.3993564), wk =   0.0277778
        k(   43) = (   0.3289156  -0.4759565  -0.1143538), wk =   0.0277778
        k(   44) = (   0.3288656  -0.4759565   0.0568830), wk =   0.0277778
        k(   45) = (  -0.4932233   0.0000000  -0.3421796), wk =   0.0138889
        k(   46) = (  -0.4932734   0.0000000  -0.1709428), wk =   0.0277778
        k(   47) = (  -0.4931232   0.0000000  -0.6846530), wk =   0.0138889
        k(   48) = (  -0.4932233   0.1586522  -0.3421796), wk =   0.0277778
        k(   49) = (  -0.4932734   0.1586522  -0.1709428), wk =   0.0555556
        k(   50) = (  -0.4931232   0.1586522  -0.6846530), wk =   0.0277778
        k(   51) = (  -0.4932233   0.3173044  -0.3421796), wk =   0.0277778
        k(   52) = (  -0.4932734   0.3173044  -0.1709428), wk =   0.0555556
        k(   53) = (  -0.4931232   0.3173044  -0.6846530), wk =   0.0277778
        k(   54) = (  -0.4932233  -0.4759565  -0.3421796), wk =   0.0138889
        k(   55) = (  -0.4932734  -0.4759565  -0.1709428), wk =   0.0277778
        k(   56) = (  -0.4931232  -0.4759565  -0.6846530), wk =   0.0138889

     Initial potential from superposition of free atoms

     starting charge      71.9576, renormalised to      72.0000
     Starting wfcs are   50 randomized atomic wfcs
     Checking if some PAW data can be deallocated...

     Self-consistent Calculation

     iteration #  1     ecut=    75.00 Ry     beta= 0.70
     Davidson diagonalization with overlap
     c_bands:  3 eigenvalues not converged
     c_bands:  3 eigenvalues not converged
     c_bands:  3 eigenvalues not converged
     c_bands:  3 eigenvalues not converged
     c_bands:  1 eigenvalues not converged
     c_bands:  2 eigenvalues not converged
     c_bands:  2 eigenvalues not converged
     c_bands:  1 eigenvalues not converged
     c_bands:  1 eigenvalues not converged
     c_bands:  2 eigenvalues not converged
     c_bands:  1 eigenvalues not converged
     c_bands:  3 eigenvalues not converged
     c_bands:  2 eigenvalues not converged
     c_bands:  3 eigenvalues not converged
     c_bands:  2 eigenvalues not converged
     c_bands:  2 eigenvalues not converged
     c_bands:  2 eigenvalues not converged
     ethr =  1.00E-06,  avg # of iterations = 20.0

[...]

     total energy              =    -665.34048474 Ry
     estimated scf accuracy    <          3.1E-09 Ry

     iteration # 10     ecut=    75.00 Ry     beta= 0.70
     Davidson diagonalization with overlap
     ethr =  4.26E-12,  avg # of iterations =  2.7

     End of self-consistent calculation

[...]

          k = 0.3289-0.4760 0.0569 ( 17066 PWs)   bands (ev):

[...]

          k =-0.4931-0.4760-0.6847 ( 17016 PWs)   bands (ev):

   -49.4050 -49.4050 -49.4047 -49.4047 -49.2996 -49.2996 -21.3558 -21.3558
   -21.3444 -21.3444 -21.3410 -21.3410 -21.3290 -21.3290 -21.3173 -21.3173
   -21.3165 -21.3165 -21.2321 -21.2321 -21.2244 -21.2244 -21.2193 -21.2193
    -4.3277  -4.3277  -1.9917  -1.9917  -1.1784  -1.1784  -1.1418  -1.1418
    -0.0230  -0.0230   0.9914   0.9914   5.7793   5.7793   7.1030   7.1030
     7.8682   7.8683   8.1095

     the Fermi energy is     3.2702 ev

!    total energy              =    -665.34048474 Ry
     estimated scf accuracy    <          1.4E-11 Ry
     smearing contrib. (-TS)   =      -0.00000000 Ry
     internal energy E=F+TS    =    -665.34048474 Ry

     The total energy is F=E-TS. E is the sum of the following terms:
     one-electron contribution =    -487.81828386 Ry
     hartree contribution      =     256.95194747 Ry
     xc contribution           =    -100.09925418 Ry
     ewald contribution        =    -265.04560858 Ry
     one-center paw contrib.   =     -69.32928558 Ry

     convergence has been achieved in  10 iterations

     Forces acting on atoms (cartesian axes, Ry/au):

     atom    1 type  1   force =     0.00000000    0.00000000    0.00000000
     atom    2 type  1   force =     0.00000000    0.00000000    0.00000000
     atom    3 type  3   force =     0.00000000    0.00000000    0.00000000
     atom    4 type  3   force =     0.00000000    0.00000000    0.00000000
     atom    5 type  3   force =    -0.00015035    0.00023187   -0.00001191
     atom    6 type  3   force =     0.00015035   -0.00023187    0.00001191
     atom    7 type  3   force =     0.00015035    0.00023187    0.00001191
     atom    8 type  3   force =    -0.00015035   -0.00023187   -0.00001191
     atom    9 type  2   force =     0.00004851    0.00008671    0.00012256
     atom   10 type  2   force =    -0.00004851   -0.00008671   -0.00012256
     atom   11 type  2   force =    -0.00004851    0.00008671   -0.00012256
     atom   12 type  2   force =     0.00004851   -0.00008671    0.00012256
     atom   13 type  2   force =     0.00006226   -0.00006011   -0.00006621
     atom   14 type  2   force =    -0.00006226    0.00006011    0.00006621
     atom   15 type  2   force =    -0.00006226   -0.00006011    0.00006621
     atom   16 type  2   force =     0.00006226    0.00006011   -0.00006621
     atom   17 type  2   force =    -0.00000956   -0.00006143    0.00006169
     atom   18 type  2   force =     0.00000956    0.00006143   -0.00006169
     atom   19 type  2   force =     0.00000956   -0.00006143   -0.00006169
     atom   20 type  2   force =    -0.00000956    0.00006143    0.00006169

     Total force =     0.000696     Total SCF correction =     0.000003

     Computing stress (Cartesian axis) and pressure

          total   stress  (Ry/bohr**3)                   (kbar)     P=       -0.02
   0.00000025   0.00000000   0.00000043            0.04        0.00        0.06
   0.00000000  -0.00000144   0.00000000            0.00       -0.21        0.00
   0.00000043   0.00000000   0.00000072            0.06        0.00        0.11

     General routines

     Parallel routines

   This run was terminated on:  19:59:55  31Oct2023

   JOB DONE.
Job execution finished at: Tue Oct 31 19:59:56 IST 2023