     Program PWSCF v.7.1 starts on  1Dec2023 at 12:23:20

     Reading input from nagah4.in

     Current dimensions of program PWSCF are:
     Max number of different atomic species (ntypx) = 10
     Max number of k-points (npk) =  40000
     Max angular momentum in pseudopotentials (lmaxx) =  4
     file Ga.pbe-dn-kjpaw_psl.1.0.0.UPF: wavefunction(s)  4S renormalized

     IMPORTANT: XC functional enforced from input :
     Exchange-correlation= PBE
                           (   1   4   3   4   0   0   0)
     Any further DFT definition will be discarded
     Please, verify this is what you really want

     Message from routine setup:
     using ibrav=0 with symmetry is DISCOURAGED, use correct ibrav instead

     K-points division:     npool     =       4
     R & G space division:  proc/nbgrp/npool/nimage =      36
     Subspace diagonalization in iterative solution of the eigenvalue problem:
     a serial algorithm will be used

     Using Slab Decomposition

     bravais-lattice index     =            0
     lattice parameter (alat)  =      13.1656  a.u.
     unit-cell volume          =    1042.5457 (a.u.)^3
     number of atoms/cell      =           12
     number of atomic types    =            3
     number of electrons       =        52.00
     number of Kohn-Sham states=           31
     kinetic-energy cutoff     =      75.0000  Ry
     charge density cutoff     =     375.0000  Ry
     scf convergence threshold =      1.0E-08
     mixing beta               =       0.7000
     number of iterations used =            8  plain     mixing
     energy convergence thresh.=      1.0E-04
     force convergence thresh. =      1.0E-03
     press convergence thresh. =      5.0E-01
     Exchange-correlation= PBE
                           (   1   4   3   4   0   0   0)
     nstep                     =           50

     celldm(1)=  13.165552  celldm(2)=   0.000000  celldm(3)=   0.000000
     celldm(4)=   0.000000  celldm(5)=   0.000000  celldm(6)=   0.000000

     crystal axes: (cart. coord. in units of alat)
               a(1) = (   0.500000  -0.451541   0.000000 )
               a(2) = (   0.500000   0.451541   0.000000 )
               a(3) = (   0.000000   0.000000   1.011767 )

     reciprocal axes: (cart. coord. in units 2 pi/alat)
               b(1) = (  1.000000 -1.107318  0.000000 )
               b(2) = (  1.000000  1.107318  0.000000 )
               b(3) = (  0.000000  0.000000  0.988370 )

     PseudoPot. # 1 for H  read from file:
     /home/garima.iitr/.cache/.es/compmat/nagah4/H.pbe-rrkjus_psl.1.0.0.UPF
     MD5 check sum: 3f4114867bd07edc7f1424d066fc1888
     Pseudo is Ultrasoft, Zval =  1.0
     Generated using &quot;atomic&quot; code by A. Dal Corso  v.6.3MaX
     Using radial grid of  929 points,  2 beta functions with:
                l(1) =   0
                l(2) =   0
     Q(r) pseudized with 0 coefficients

     PseudoPot. # 2 for Ga read from file:
     /home/garima.iitr/.cache/.es/compmat/nagah4/Ga.pbe-dn-kjpaw_psl.1.0.0.UPF
     MD5 check sum: 50ce49cbf7e0a40ad8623bf41840a268
     Pseudo is Projector augmented-wave + core cor, Zval = 13.0
     Generated using &quot;atomic&quot; code by A. Dal Corso  v.6.3
     Shape of augmentation charge: PSQ
     Using radial grid of 1205 points,  6 beta functions with:
                l(1) =   0
                l(2) =   0
                l(3) =   1
                l(4) =   1
                l(5) =   2
                l(6) =   2
     Q(r) pseudized with 0 coefficients

     PseudoPot. # 3 for Na read from file:
     /home/garima.iitr/.cache/.es/compmat/nagah4/na_pbe_v1.5.uspp.F.UPF
     MD5 check sum: 44600605ef58000f06b90626533354dc
     Pseudo is Ultrasoft, Zval =  9.0
     Generated by new atomic code, or converted to UPF format
     Using radial grid of  819 points,  5 beta functions with:
                l(1) =   0
                l(2) =   0
                l(3) =   1
                l(4) =   1
                l(5) =   2
     Q(r) pseudized with  8 coefficients,  rinner =    1.250   1.250   1.250
                                                       1.250   1.250

     atomic species   valence    mass     pseudopotential
        H              1.00     1.00750     H ( 1.00)
        Ga            13.00    69.72300     Ga( 1.00)
        Na             9.00    22.98900     Na( 1.00)

      8 Sym. Ops., with inversion, found ( 4 have fractional translation)

   Cartesian axes

     site n.     atom                  positions (alat units)
         1           Ga  tau(   1) = (   0.5000000  -0.3087393   0.7588249  )
         2           Ga  tau(   2) = (   0.5000000   0.3087393   0.2529416  )
         3           Na  tau(   3) = (   0.5000000  -0.1426142   0.2529416  )
         4           Na  tau(   4) = (   0.5000000   0.1426142   0.7588249  )
         5           H   tau(   5) = (   0.5000000  -0.1708362   0.5763575  )
         6           H   tau(   6) = (   0.5000000  -0.1708362   0.9412923  )
         7           H   tau(   7) = (   0.5000000   0.1708362   0.0704742  )
         8           H   tau(   8) = (   0.5000000   0.1708362   0.4354090  )
         9           H   tau(   9) = (   0.1848582   0.0074012   0.7588249  )
        10           H   tau(  10) = (   0.1848582  -0.0074012   0.2529416  )
        11           H   tau(  11) = (   0.8151418  -0.0074012   0.2529416  )
        12           H   tau(  12) = (   0.8151418   0.0074012   0.7588249  )

     number of k points=    52  Marzari-Vanderbilt smearing, width (Ry)=  0.0050
                       cart. coord. in units 2pi/alat
        k(    1) = (   0.0000000   0.0000000   0.0000000), wk =   0.0092593
        k(    2) = (   0.0000000   0.0000000   0.1647284), wk =   0.0185185
        k(    3) = (   0.0000000   0.0000000   0.3294568), wk =   0.0185185
        k(    4) = (   0.0000000   0.0000000  -0.4941852), wk =   0.0092593
        k(    5) = (   0.1666667   0.1845530   0.0000000), wk =   0.0370370
        k(    6) = (   0.1666667   0.1845530   0.1647284), wk =   0.0740741
        k(    7) = (   0.1666667   0.1845530   0.3294568), wk =   0.0740741
        k(    8) = (   0.1666667   0.1845530  -0.4941852), wk =   0.0370370
        k(    9) = (   0.3333333   0.3691060   0.0000000), wk =   0.0370370
        k(   10) = (   0.3333333   0.3691060   0.1647284), wk =   0.0740741
        k(   11) = (   0.3333333   0.3691060   0.3294568), wk =   0.0740741
        k(   12) = (   0.3333333   0.3691060  -0.4941852), wk =   0.0370370
        k(   13) = (  -0.5000000  -0.5536591   0.0000000), wk =   0.0185185
        k(   14) = (  -0.5000000  -0.5536591   0.1647284), wk =   0.0370370
        k(   15) = (  -0.5000000  -0.5536591   0.3294568), wk =   0.0370370
        k(   16) = (  -0.5000000  -0.5536591  -0.4941852), wk =   0.0185185
        k(   17) = (   0.3333333   0.0000000   0.0000000), wk =   0.0185185
        k(   18) = (   0.3333333   0.0000000   0.1647284), wk =   0.0370370
        k(   19) = (   0.3333333   0.0000000   0.3294568), wk =   0.0370370
        k(   20) = (   0.3333333   0.0000000  -0.4941852), wk =   0.0185185
        k(   21) = (   0.5000000   0.1845530   0.0000000), wk =   0.0370370
        k(   22) = (   0.5000000   0.1845530   0.1647284), wk =   0.0740741
        k(   23) = (   0.5000000   0.1845530   0.3294568), wk =   0.0740741
        k(   24) = (   0.5000000   0.1845530  -0.4941852), wk =   0.0370370
        k(   25) = (  -0.3333333  -0.7382121   0.0000000), wk =   0.0370370
        k(   26) = (  -0.3333333  -0.7382121   0.1647284), wk =   0.0740741
        k(   27) = (  -0.3333333  -0.7382121   0.3294568), wk =   0.0740741
        k(   28) = (  -0.3333333  -0.7382121  -0.4941852), wk =   0.0370370
        k(   29) = (  -0.1666667  -0.5536591   0.0000000), wk =   0.0370370
        k(   30) = (  -0.1666667  -0.5536591   0.1647284), wk =   0.0740741
        k(   31) = (  -0.1666667  -0.5536591   0.3294568), wk =   0.0740741
        k(   32) = (  -0.1666667  -0.5536591  -0.4941852), wk =   0.0370370
        k(   33) = (   0.0000000  -0.3691060   0.0000000), wk =   0.0185185
        k(   34) = (   0.0000000  -0.3691060   0.1647284), wk =   0.0370370
        k(   35) = (   0.0000000  -0.3691060   0.3294568), wk =   0.0370370
        k(   36) = (   0.0000000  -0.3691060  -0.4941852), wk =   0.0185185
        k(   37) = (   0.6666667   0.0000000   0.0000000), wk =   0.0185185
        k(   38) = (   0.6666667   0.0000000   0.1647284), wk =   0.0370370
        k(   39) = (   0.6666667   0.0000000   0.3294568), wk =   0.0370370
        k(   40) = (   0.6666667   0.0000000  -0.4941852), wk =   0.0185185
        k(   41) = (  -0.1666667  -0.9227651   0.0000000), wk =   0.0370370
        k(   42) = (  -0.1666667  -0.9227651   0.1647284), wk =   0.0740741
        k(   43) = (  -0.1666667  -0.9227651   0.3294568), wk =   0.0740741
        k(   44) = (  -0.1666667  -0.9227651  -0.4941852), wk =   0.0370370
        k(   45) = (  -0.0000000  -0.7382121   0.0000000), wk =   0.0185185
        k(   46) = (  -0.0000000  -0.7382121   0.1647284), wk =   0.0370370
        k(   47) = (  -0.0000000  -0.7382121   0.3294568), wk =   0.0370370
        k(   48) = (  -0.0000000  -0.7382121  -0.4941852), wk =   0.0185185
        k(   49) = (  -1.0000000   0.0000000   0.0000000), wk =   0.0092593
        k(   50) = (  -1.0000000   0.0000000   0.1647284), wk =   0.0185185
        k(   51) = (  -1.0000000   0.0000000   0.3294568), wk =   0.0185185
        k(   52) = (  -1.0000000   0.0000000  -0.4941852), wk =   0.0092593

     Initial potential from superposition of free atoms

     starting charge      51.9814, renormalised to      52.0000
     Starting wfcs are   36 randomized atomic wfcs
     Checking if some PAW data can be deallocated...

     Self-consistent Calculation

     iteration #  1     ecut=    75.00 Ry     beta= 0.70
     Davidson diagonalization with overlap
     ethr =  1.00E-02,  avg # of iterations =  4.3

     Threshold (ethr) on eigenvalues was too large:
     Diagonalizing with lowered threshold

     Davidson diagonalization with overlap
     ethr =  8.36E-04,  avg # of iterations =  5.6

     total energy              =    -755.87804427 Ry
     estimated scf accuracy    <       0.46792926 Ry

[...]

     iteration #  3     ecut=    75.00 Ry     beta= 0.70
     Davidson diagonalization with overlap
     c_bands:  1 eigenvalues not converged
     ethr =  1.68E-05,  avg # of iterations = 14.8

[...]

     End of self-consistent calculation

          k = 0.0000 0.0000 0.0000 ( 11443 PWs)   bands (ev):

   -50.0315 -50.0313 -21.9541 -21.9528 -21.9524 -21.9520 -21.9516 -21.9444
   -12.2499 -12.2493 -12.2474 -12.2429 -12.2342 -12.2316 -12.1100 -12.1075
   -12.0948 -12.0930  -6.5062  -5.5274  -2.0195  -0.8074  -0.7056  -0.6287
    -0.2479  -0.1973   4.7175   5.0607   5.7726   6.2688   6.4375

[...]

          k =-0.5000-0.5537 0.0000 ( 11426 PWs)   bands (ev):

[...]

     the Fermi energy is     1.7516 ev

!    total energy              =    -755.96425163 Ry
     estimated scf accuracy    <          3.9E-09 Ry
     smearing contrib. (-TS)   =       0.00000000 Ry
     internal energy E=F+TS    =    -755.96425163 Ry

[...]
Ga            0.8418692936        0.1581307064        0.7500000000
Ga            0.1581307064        0.8418692936        0.2500000000
Na            0.6578816708        0.3421183292        0.2500000000
Na            0.3421183292        0.6578816708        0.7500000000
H             0.6891801253        0.3108198747        0.5696508432
H             0.6891801253        0.3108198747        0.9303491568
H             0.3108198747        0.6891801253        0.0696508432
H             0.3108198747        0.6891801253        0.4303491568
H             0.1766638700        0.1930752683        0.7500000000
H             0.1930752683        0.1766638700        0.2500000000
H             0.8233361300        0.8069247317        0.2500000000
H             0.8069247317        0.8233361300        0.7500000000

     Writing config-only to output data dir ./nagah4.save/
     NEW-OLD atomic charge density approx. for the potential
     extrapolated charge   52.23853, renormalised to   52.00000

[...]

     Energy error            =      2.7E-04 Ry
     Gradient error          =      7.4E-04 Ry/Bohr
     Cell gradient error     =      8.2E+00 kbar

[...]

     enthalpy           old  =    -755.9642516300 Ry
     enthalpy           new  =    -755.9645205108 Ry

     CASE: enthalpy          _new < enthalpy          _old

     WARNING: bfgs curvature condition failed, Theta= 0.999
     new trust radius        =       0.0124731523 bohr
     new conv_thr            =            1.0E-10 Ry

[...]

     number of scf cycles    =  17
     number of bfgs steps    =  16

     enthalpy           old  =    -755.9659950958 Ry
     enthalpy           new  =    -755.9660006780 Ry

     CASE: enthalpy          _new < enthalpy          _old

     new trust radius        =       0.0065842015 bohr
     new conv_thr            =            1.0E-10 Ry

     new unit-cell volume =   1103.83998 a.u.^3 (   163.57221 Ang^3 )
     density =      1.96420 g/cm^3

[...]

ATOMIC_POSITIONS (crystal)
Ga            0.8405371060        0.1594628940        0.7500000000
Ga            0.1594628940        0.8405371060        0.2500000000
Na            0.6553776642        0.3446223358        0.2500000000
Na            0.3446223358        0.6553776642        0.7500000000
H             0.6911428093        0.3088571907        0.5714890645
H             0.6911428093        0.3088571907        0.9285109355
H             0.3088571907        0.6911428093        0.0714890645
H             0.3088571907        0.6911428093        0.4285109355
H             0.1689246175        0.1958752072        0.7500000000
H             0.1958752072        0.1689246175        0.2500000000
H             0.8310753825        0.8041247928        0.2500000000
H             0.8041247928        0.8310753825        0.7500000000

     Writing config-only to output data dir ./nagah4.save/
     NEW-OLD atomic charge density approx. for the potential
     extrapolated charge   51.99914, renormalised to   52.00000

[...]

     Energy error            =      6.3E-06 Ry
     Gradient error          =      2.2E-04 Ry/Bohr
     Cell gradient error     =      4.9E-01 kbar

     bfgs converged in  18 scf cycles and  17 bfgs steps
     (criteria: energy <  1.0E-04 Ry, force <  1.0E-03 Ry/Bohr, cell <  5.0E-01 kbar)

     End of BFGS Geometry Optimization

     Final enthalpy           =    -755.9660069955 Ry

     File ./nagah4.bfgs deleted, as requested
Begin final coordinates
     new unit-cell volume =   1103.83998 a.u.^3 (   163.57221 Ang^3 )
     density =      1.96420 g/cm^3

CELL_PARAMETERS (alat= 13.16555183)
   0.509473081  -0.461686891   0.000000000
   0.509473081   0.461686891   0.000000000
   0.000000000   0.000000000   1.028229683

ATOMIC_POSITIONS (crystal)
Ga            0.8405371060        0.1594628940        0.7500000000
Ga            0.1594628940        0.8405371060        0.2500000000
Na            0.6553776642        0.3446223358        0.2500000000
Na            0.3446223358        0.6553776642        0.7500000000
H             0.6911428093        0.3088571907        0.5714890645
H             0.6911428093        0.3088571907        0.9285109355
H             0.3088571907        0.6911428093        0.0714890645
H             0.3088571907        0.6911428093        0.4285109355
H             0.1689246175        0.1958752072        0.7500000000
H             0.1958752072        0.1689246175        0.2500000000
H             0.8310753825        0.8041247928        0.2500000000
H             0.8041247928        0.8310753825        0.7500000000
End final coordinates

     Writing config-only to output data dir ./nagah4.save/

     Final scf calculation at the relaxed structure.
     The G-vectors are recalculated for the final unit cell
     Results may differ from those at the preceding step.

     Using Slab Decomposition

     bravais-lattice index     =            0
     lattice parameter (alat)  =      13.1656  a.u.
     unit-cell volume          =    1103.8400 (a.u.)^3
     number of atoms/cell      =           12
     number of atomic types    =            3
     number of electrons       =        52.00
     number of Kohn-Sham states=           31
     kinetic-energy cutoff     =      75.0000  Ry
     charge density cutoff     =     375.0000  Ry
     scf convergence threshold =      1.0E-10
     mixing beta               =       0.7000
     number of iterations used =            8  plain     mixing
     press convergence thresh. =      5.0E-01
     Exchange-correlation= PBE
                           (   1   4   3   4   0   0   0)

     celldm(1)=  13.165552  celldm(2)=   0.000000  celldm(3)=   0.000000
     celldm(4)=   0.000000  celldm(5)=   0.000000  celldm(6)=   0.000000

     crystal axes: (cart. coord. in units of alat)
               a(1) = (   0.509473  -0.461687   0.000000 )
               a(2) = (   0.509473   0.461687   0.000000 )
               a(3) = (   0.000000   0.000000   1.028230 )

     reciprocal axes: (cart. coord. in units 2 pi/alat)
               b(1) = (  0.981406 -1.082985  0.000000 )
               b(2) = (  0.981406  1.082985  0.000000 )
               b(3) = (  0.000000  0.000000  0.972545 )

     PseudoPot. # 1 for H  read from file:
     /home/garima.iitr/.cache/.es/compmat/nagah4/H.pbe-rrkjus_psl.1.0.0.UPF
     MD5 check sum: 3f4114867bd07edc7f1424d066fc1888
     Pseudo is Ultrasoft, Zval =  1.0
     Generated using &quot;atomic&quot; code by A. Dal Corso  v.6.3MaX
     Using radial grid of  929 points,  2 beta functions with:
                l(1) =   0
                l(2) =   0
     Q(r) pseudized with 0 coefficients

     PseudoPot. # 2 for Ga read from file:
     /home/garima.iitr/.cache/.es/compmat/nagah4/Ga.pbe-dn-kjpaw_psl.1.0.0.UPF
     MD5 check sum: 50ce49cbf7e0a40ad8623bf41840a268
     Pseudo is Projector augmented-wave + core cor, Zval = 13.0
     Generated using &quot;atomic&quot; code by A. Dal Corso  v.6.3
     Shape of augmentation charge: PSQ
     Using radial grid of 1205 points,  6 beta functions with:
                l(1) =   0
                l(2) =   0
                l(3) =   1
                l(4) =   1
                l(5) =   2
                l(6) =   2
     Q(r) pseudized with 0 coefficients

     PseudoPot. # 3 for Na read from file:
     /home/garima.iitr/.cache/.es/compmat/nagah4/na_pbe_v1.5.uspp.F.UPF
     MD5 check sum: 44600605ef58000f06b90626533354dc
     Pseudo is Ultrasoft, Zval =  9.0
     Generated by new atomic code, or converted to UPF format
     Using radial grid of  819 points,  5 beta functions with:
                l(1) =   0
                l(2) =   0
                l(3) =   1
                l(4) =   1
                l(5) =   2
     Q(r) pseudized with  8 coefficients,  rinner =    1.250   1.250   1.250
                                                       1.250   1.250

     atomic species   valence    mass     pseudopotential
        H              1.00     1.00750     H ( 1.00)
        Ga            13.00    69.72300     Ga( 1.00)
        Na             9.00    22.98900     Na( 1.00)

      8 Sym. Ops., with inversion, found ( 4 have fractional translation)

   Cartesian axes

     site n.     atom                  positions (alat units)
         1           Ga  tau(   1) = (   0.5094731  -0.3144430   0.7711723  )
         2           Ga  tau(   2) = (   0.5094731   0.3144430   0.2570574  )
         3           Na  tau(   3) = (   0.5094731  -0.1434717   0.2570574  )
         4           Na  tau(   4) = (   0.5094731   0.1434717   0.7711723  )
         5           H   tau(   5) = (   0.5094731  -0.1764963   0.5876220  )
         6           H   tau(   6) = (   0.5094731  -0.1764963   0.9547225  )
         7           H   tau(   7) = (   0.5094731   0.1764963   0.0735072  )
         8           H   tau(   8) = (   0.5094731   0.1764963   0.4406077  )
         9           H   tau(   9) = (   0.1858557   0.0124427   0.7711723  )
        10           H   tau(  10) = (   0.1858557  -0.0124427   0.2570574  )
        11           H   tau(  11) = (   0.8330905  -0.0124427   0.2570574  )
        12           H   tau(  12) = (   0.8330905   0.0124427   0.7711723  )

     number of k points=    52  Marzari-Vanderbilt smearing, width (Ry)=  0.0050
                       cart. coord. in units 2pi/alat
        k(    1) = (   0.0000000   0.0000000   0.0000000), wk =   0.0092593
        k(    2) = (   0.0000000   0.0000000   0.1620909), wk =   0.0185185
        k(    3) = (   0.0000000   0.0000000   0.3241818), wk =   0.0185185
        k(    4) = (   0.0000000   0.0000000  -0.4862727), wk =   0.0092593
        k(    5) = (   0.1635677   0.1804975   0.0000000), wk =   0.0370370
        k(    6) = (   0.1635677   0.1804975   0.1620909), wk =   0.0740741
        k(    7) = (   0.1635677   0.1804975   0.3241818), wk =   0.0740741
        k(    8) = (   0.1635677   0.1804975  -0.4862727), wk =   0.0370370
        k(    9) = (   0.3271354   0.3609950   0.0000000), wk =   0.0370370
        k(   10) = (   0.3271354   0.3609950   0.1620909), wk =   0.0740741
        k(   11) = (   0.3271354   0.3609950   0.3241818), wk =   0.0740741
        k(   12) = (   0.3271354   0.3609950  -0.4862727), wk =   0.0370370
        k(   13) = (  -0.4907031  -0.5414925   0.0000000), wk =   0.0185185
        k(   14) = (  -0.4907031  -0.5414925   0.1620909), wk =   0.0370370
        k(   15) = (  -0.4907031  -0.5414925   0.3241818), wk =   0.0370370
        k(   16) = (  -0.4907031  -0.5414925  -0.4862727), wk =   0.0185185
        k(   17) = (   0.3271354   0.0000000   0.0000000), wk =   0.0185185
        k(   18) = (   0.3271354   0.0000000   0.1620909), wk =   0.0370370
        k(   19) = (   0.3271354   0.0000000   0.3241818), wk =   0.0370370
        k(   20) = (   0.3271354   0.0000000  -0.4862727), wk =   0.0185185
        k(   21) = (   0.4907031   0.1804975   0.0000000), wk =   0.0370370
        k(   22) = (   0.4907031   0.1804975   0.1620909), wk =   0.0740741
        k(   23) = (   0.4907031   0.1804975   0.3241818), wk =   0.0740741
        k(   24) = (   0.4907031   0.1804975  -0.4862727), wk =   0.0370370
        k(   25) = (  -0.3271354  -0.7219900   0.0000000), wk =   0.0370370
        k(   26) = (  -0.3271354  -0.7219900   0.1620909), wk =   0.0740741
        k(   27) = (  -0.3271354  -0.7219900   0.3241818), wk =   0.0740741
        k(   28) = (  -0.3271354  -0.7219900  -0.4862727), wk =   0.0370370
        k(   29) = (  -0.1635677  -0.5414925   0.0000000), wk =   0.0370370
        k(   30) = (  -0.1635677  -0.5414925   0.1620909), wk =   0.0740741
        k(   31) = (  -0.1635677  -0.5414925   0.3241818), wk =   0.0740741
        k(   32) = (  -0.1635677  -0.5414925  -0.4862727), wk =   0.0370370
        k(   33) = (   0.0000000  -0.3609950   0.0000000), wk =   0.0185185
        k(   34) = (   0.0000000  -0.3609950   0.1620909), wk =   0.0370370
        k(   35) = (   0.0000000  -0.3609950   0.3241818), wk =   0.0370370
        k(   36) = (   0.0000000  -0.3609950  -0.4862727), wk =   0.0185185
        k(   37) = (   0.6542707   0.0000000   0.0000000), wk =   0.0185185
        k(   38) = (   0.6542707   0.0000000   0.1620909), wk =   0.0370370
        k(   39) = (   0.6542707   0.0000000   0.3241818), wk =   0.0370370
        k(   40) = (   0.6542707   0.0000000  -0.4862727), wk =   0.0185185
        k(   41) = (  -0.1635677  -0.9024875   0.0000000), wk =   0.0370370
        k(   42) = (  -0.1635677  -0.9024875   0.1620909), wk =   0.0740741
        k(   43) = (  -0.1635677  -0.9024875   0.3241818), wk =   0.0740741
        k(   44) = (  -0.1635677  -0.9024875  -0.4862727), wk =   0.0370370
        k(   45) = (   0.0000000  -0.7219900   0.0000000), wk =   0.0185185
        k(   46) = (   0.0000000  -0.7219900   0.1620909), wk =   0.0370370
        k(   47) = (   0.0000000  -0.7219900   0.3241818), wk =   0.0370370
        k(   48) = (   0.0000000  -0.7219900  -0.4862727), wk =   0.0185185
        k(   49) = (  -0.9814061   0.0000000   0.0000000), wk =   0.0092593
        k(   50) = (  -0.9814061   0.0000000   0.1620909), wk =   0.0185185
        k(   51) = (  -0.9814061   0.0000000   0.3241818), wk =   0.0185185
        k(   52) = (  -0.9814061   0.0000000  -0.4862727), wk =   0.0092593

     Initial potential from superposition of free atoms

     starting charge      51.9814, renormalised to      52.0000
     Starting wfcs are   36 randomized atomic wfcs
     Checking if some PAW data can be deallocated...

     Self-consistent Calculation

     iteration #  1     ecut=    75.00 Ry     beta= 0.70
     Davidson diagonalization with overlap
     c_bands:  1 eigenvalues not converged
     c_bands:  2 eigenvalues not converged
     c_bands:  1 eigenvalues not converged
     ethr =  1.00E-06,  avg # of iterations = 54.9

[...]

     total energy              =    -755.96622437 Ry
     estimated scf accuracy    <       0.00000002 Ry

     iteration # 13     ecut=    75.00 Ry     beta= 0.70
     Davidson diagonalization with overlap
     ethr =  4.23E-11,  avg # of iterations =  5.8

     End of self-consistent calculation

[...]

          k = 0.0000-0.7220-0.4863 ( 12126 PWs)   bands (ev):

[...]

          k =-0.9814 0.0000-0.4863 ( 12104 PWs)   bands (ev):

   -50.4767 -50.4767 -22.3969 -22.3969 -22.3961 -22.3961 -22.3893 -22.3893
   -12.5424 -12.5424 -12.5289 -12.5289 -12.5259 -12.5259 -12.4066 -12.4066
   -12.3934 -12.3934  -5.5399  -5.5399  -2.1305  -2.1305  -1.9452  -1.9452
    -1.3693  -1.3693   5.2746   5.2746   6.3266   6.3266   6.7474

     the Fermi energy is     1.3032 ev

!    total energy              =    -755.96622438 Ry
     estimated scf accuracy    <          1.7E-11 Ry
     smearing contrib. (-TS)   =       0.00000000 Ry
     internal energy E=F+TS    =    -755.96622438 Ry

     The total energy is F=E-TS. E is the sum of the following terms:
     one-electron contribution =    -449.36382485 Ry
     hartree contribution      =     250.25835214 Ry
     xc contribution           =    -110.68883195 Ry
     ewald contribution        =    -223.50302113 Ry
     one-center paw contrib.   =    -222.66889859 Ry

     convergence has been achieved in  13 iterations

     Forces acting on atoms (cartesian axes, Ry/au):

     atom    1 type  2   force =    -0.00000000    0.00010391    0.00000000
     atom    2 type  2   force =     0.00000000   -0.00010391    0.00000000
     atom    3 type  3   force =     0.00000000   -0.00018429    0.00000000
     atom    4 type  3   force =    -0.00000000    0.00018429    0.00000000
     atom    5 type  1   force =    -0.00000000    0.00001529    0.00018397
     atom    6 type  1   force =    -0.00000000    0.00001529   -0.00018397
     atom    7 type  1   force =     0.00000000   -0.00001529    0.00018397
     atom    8 type  1   force =     0.00000000   -0.00001529   -0.00018397
     atom    9 type  1   force =    -0.00008648    0.00022503    0.00000000
     atom   10 type  1   force =    -0.00008648   -0.00022503    0.00000000
     atom   11 type  1   force =     0.00008648   -0.00022503    0.00000000
     atom   12 type  1   force =     0.00008648    0.00022503    0.00000000

     Total force =     0.000677     Total SCF correction =     0.000008

     Computing stress (Cartesian axis) and pressure

          total   stress  (Ry/bohr**3)                   (kbar)     P=       -0.20
  -0.00000170   0.00000000   0.00000000           -0.25        0.00        0.00
   0.00000000  -0.00000112   0.00000000            0.00       -0.17        0.00
   0.00000000   0.00000000  -0.00000127            0.00        0.00       -0.19

     Writing all to output data dir ./nagah4.save/

     General routines

     Parallel routines

   This run was terminated on:  12:28:10   1Dec2023

   JOB DONE.
Job execution finished at: Fri Dec  1 12:28:10 IST 2023