     Program PWSCF v.7.1 starts on  1Dec2023 at  9:20:11

     Reading input from nagah4.in

     Current dimensions of program PWSCF are:
     Max number of different atomic species (ntypx) = 10
     Max number of k-points (npk) =  40000
     Max angular momentum in pseudopotentials (lmaxx) =  4
     file Ga.pbe-dn-kjpaw_psl.1.0.0.UPF: wavefunction(s)  4S renormalized

     IMPORTANT: XC functional enforced from input :
     Exchange-correlation= PBE
                           (   1   4   3   4   0   0   0)
     Any further DFT definition will be discarded
     Please, verify this is what you really want

     Message from routine setup:
     using ibrav=0 with symmetry is DISCOURAGED, use correct ibrav instead

     K-points division:     npool     =       4
     R & G space division:  proc/nbgrp/npool/nimage =      36
     Subspace diagonalization in iterative solution of the eigenvalue problem:
     a serial algorithm will be used

     Using Slab Decomposition

     bravais-lattice index     =            0
     lattice parameter (alat)  =      13.1656  a.u.
     unit-cell volume          =    1042.5457 (a.u.)^3
     number of atoms/cell      =           12
     number of atomic types    =            3
     number of electrons       =        52.00
     number of Kohn-Sham states=           31
     kinetic-energy cutoff     =      75.0000  Ry
     charge density cutoff     =     375.0000  Ry
     scf convergence threshold =      1.0E-08
     mixing beta               =       0.7000
     number of iterations used =            8  plain     mixing
     energy convergence thresh.=      1.0E-04
     force convergence thresh. =      1.0E-03
     Exchange-correlation= PBE
                           (   1   4   3   4   0   0   0)
     nstep                     =           50

     celldm(1)=  13.165552  celldm(2)=   0.000000  celldm(3)=   0.000000
     celldm(4)=   0.000000  celldm(5)=   0.000000  celldm(6)=   0.000000

     crystal axes: (cart. coord. in units of alat)
               a(1) = (   0.500000  -0.451541   0.000000 )
               a(2) = (   0.500000   0.451541   0.000000 )
               a(3) = (   0.000000   0.000000   1.011767 )

     reciprocal axes: (cart. coord. in units 2 pi/alat)
               b(1) = (  1.000000 -1.107318  0.000000 )
               b(2) = (  1.000000  1.107318  0.000000 )
               b(3) = (  0.000000  0.000000  0.988370 )

     PseudoPot. # 1 for H  read from file:
     /home/garima.iitr/.cache/.es/compmat/nagah4/H.pbe-rrkjus_psl.1.0.0.UPF
     MD5 check sum: 3f4114867bd07edc7f1424d066fc1888
     Pseudo is Ultrasoft, Zval =  1.0
     Generated using &quot;atomic&quot; code by A. Dal Corso  v.6.3MaX
     Using radial grid of  929 points,  2 beta functions with:
                l(1) =   0
                l(2) =   0
     Q(r) pseudized with 0 coefficients

     PseudoPot. # 2 for Ga read from file:
     /home/garima.iitr/.cache/.es/compmat/nagah4/Ga.pbe-dn-kjpaw_psl.1.0.0.UPF
     MD5 check sum: 50ce49cbf7e0a40ad8623bf41840a268
     Pseudo is Projector augmented-wave + core cor, Zval = 13.0
     Generated using &quot;atomic&quot; code by A. Dal Corso  v.6.3
     Shape of augmentation charge: PSQ
     Using radial grid of 1205 points,  6 beta functions with:
                l(1) =   0
                l(2) =   0
                l(3) =   1
                l(4) =   1
                l(5) =   2
                l(6) =   2
     Q(r) pseudized with 0 coefficients

     PseudoPot. # 3 for Na read from file:
     /home/garima.iitr/.cache/.es/compmat/nagah4/na_pbe_v1.5.uspp.F.UPF
     MD5 check sum: 44600605ef58000f06b90626533354dc
     Pseudo is Ultrasoft, Zval =  9.0
     Generated by new atomic code, or converted to UPF format
     Using radial grid of  819 points,  5 beta functions with:
                l(1) =   0
                l(2) =   0
                l(3) =   1
                l(4) =   1
                l(5) =   2
     Q(r) pseudized with  8 coefficients,  rinner =    1.250   1.250   1.250
                                                       1.250   1.250

     atomic species   valence    mass     pseudopotential
        H              1.00     1.00750     H ( 1.00)
        Ga            13.00    69.72300     Ga( 1.00)
        Na             9.00    22.98900     Na( 1.00)

      8 Sym. Ops., with inversion, found ( 4 have fractional translation)

   Cartesian axes

     site n.     atom                  positions (alat units)
         1           Ga  tau(   1) = (   0.5000000  -0.3087903   0.7588249  )
         2           Ga  tau(   2) = (   0.5000000   0.3087903   0.2529416  )
         3           Na  tau(   3) = (   0.5000000  -0.1428599   0.2529416  )
         4           Na  tau(   4) = (   0.5000000   0.1428599   0.7588249  )
         5           H   tau(   5) = (   0.5000000  -0.1716432   0.5776593  )
         6           H   tau(   6) = (   0.5000000  -0.1716432   0.9399905  )
         7           H   tau(   7) = (   0.5000000   0.1716432   0.0717760  )
         8           H   tau(   8) = (   0.5000000   0.1716432   0.4341072  )
         9           H   tau(   9) = (   0.1835444   0.0081447   0.7588249  )
        10           H   tau(  10) = (   0.1835444  -0.0081447   0.2529416  )
        11           H   tau(  11) = (   0.8164556  -0.0081447   0.2529416  )
        12           H   tau(  12) = (   0.8164556   0.0081447   0.7588249  )

     number of k points=    52  Marzari-Vanderbilt smearing, width (Ry)=  0.0050
                       cart. coord. in units 2pi/alat
        k(    1) = (   0.0000000   0.0000000   0.0000000), wk =   0.0092593
        k(    2) = (   0.0000000   0.0000000   0.1647284), wk =   0.0185185
        k(    3) = (   0.0000000   0.0000000   0.3294568), wk =   0.0185185
        k(    4) = (   0.0000000   0.0000000  -0.4941852), wk =   0.0092593
        k(    5) = (   0.1666667   0.1845530   0.0000000), wk =   0.0370370
        k(    6) = (   0.1666667   0.1845530   0.1647284), wk =   0.0740741
        k(    7) = (   0.1666667   0.1845530   0.3294568), wk =   0.0740741
        k(    8) = (   0.1666667   0.1845530  -0.4941852), wk =   0.0370370
        k(    9) = (   0.3333333   0.3691060   0.0000000), wk =   0.0370370
        k(   10) = (   0.3333333   0.3691060   0.1647284), wk =   0.0740741
        k(   11) = (   0.3333333   0.3691060   0.3294568), wk =   0.0740741
        k(   12) = (   0.3333333   0.3691060  -0.4941852), wk =   0.0370370
        k(   13) = (  -0.5000000  -0.5536591   0.0000000), wk =   0.0185185
        k(   14) = (  -0.5000000  -0.5536591   0.1647284), wk =   0.0370370
        k(   15) = (  -0.5000000  -0.5536591   0.3294568), wk =   0.0370370
        k(   16) = (  -0.5000000  -0.5536591  -0.4941852), wk =   0.0185185
        k(   17) = (   0.3333333   0.0000000   0.0000000), wk =   0.0185185
        k(   18) = (   0.3333333   0.0000000   0.1647284), wk =   0.0370370
        k(   19) = (   0.3333333   0.0000000   0.3294568), wk =   0.0370370
        k(   20) = (   0.3333333   0.0000000  -0.4941852), wk =   0.0185185
        k(   21) = (   0.5000000   0.1845530   0.0000000), wk =   0.0370370
        k(   22) = (   0.5000000   0.1845530   0.1647284), wk =   0.0740741
        k(   23) = (   0.5000000   0.1845530   0.3294568), wk =   0.0740741
        k(   24) = (   0.5000000   0.1845530  -0.4941852), wk =   0.0370370
        k(   25) = (  -0.3333333  -0.7382121   0.0000000), wk =   0.0370370
        k(   26) = (  -0.3333333  -0.7382121   0.1647284), wk =   0.0740741
        k(   27) = (  -0.3333333  -0.7382121   0.3294568), wk =   0.0740741
        k(   28) = (  -0.3333333  -0.7382121  -0.4941852), wk =   0.0370370
        k(   29) = (  -0.1666667  -0.5536591   0.0000000), wk =   0.0370370
        k(   30) = (  -0.1666667  -0.5536591   0.1647284), wk =   0.0740741
        k(   31) = (  -0.1666667  -0.5536591   0.3294568), wk =   0.0740741
        k(   32) = (  -0.1666667  -0.5536591  -0.4941852), wk =   0.0370370
        k(   33) = (   0.0000000  -0.3691060   0.0000000), wk =   0.0185185
        k(   34) = (   0.0000000  -0.3691060   0.1647284), wk =   0.0370370
        k(   35) = (   0.0000000  -0.3691060   0.3294568), wk =   0.0370370
        k(   36) = (   0.0000000  -0.3691060  -0.4941852), wk =   0.0185185
        k(   37) = (   0.6666667   0.0000000   0.0000000), wk =   0.0185185
        k(   38) = (   0.6666667   0.0000000   0.1647284), wk =   0.0370370
        k(   39) = (   0.6666667   0.0000000   0.3294568), wk =   0.0370370
        k(   40) = (   0.6666667   0.0000000  -0.4941852), wk =   0.0185185
        k(   41) = (  -0.1666667  -0.9227651   0.0000000), wk =   0.0370370
        k(   42) = (  -0.1666667  -0.9227651   0.1647284), wk =   0.0740741
        k(   43) = (  -0.1666667  -0.9227651   0.3294568), wk =   0.0740741
        k(   44) = (  -0.1666667  -0.9227651  -0.4941852), wk =   0.0370370
        k(   45) = (  -0.0000000  -0.7382121   0.0000000), wk =   0.0185185
        k(   46) = (  -0.0000000  -0.7382121   0.1647284), wk =   0.0370370
        k(   47) = (  -0.0000000  -0.7382121   0.3294568), wk =   0.0370370
        k(   48) = (  -0.0000000  -0.7382121  -0.4941852), wk =   0.0185185
        k(   49) = (  -1.0000000   0.0000000   0.0000000), wk =   0.0092593
        k(   50) = (  -1.0000000   0.0000000   0.1647284), wk =   0.0185185
        k(   51) = (  -1.0000000   0.0000000   0.3294568), wk =   0.0185185
        k(   52) = (  -1.0000000   0.0000000  -0.4941852), wk =   0.0092593

     Initial potential from superposition of free atoms

     starting charge      51.9814, renormalised to      52.0000
     Starting wfcs are   36 randomized atomic wfcs
     Checking if some PAW data can be deallocated...

     Self-consistent Calculation

     iteration #  1     ecut=    75.00 Ry     beta= 0.70
     Davidson diagonalization with overlap
     ethr =  1.00E-02,  avg # of iterations =  4.4

     Threshold (ethr) on eigenvalues was too large:
     Diagonalizing with lowered threshold

     Davidson diagonalization with overlap
     ethr =  8.45E-04,  avg # of iterations =  5.5

     total energy              =    -755.87896106 Ry
     estimated scf accuracy    <       0.47554739 Ry

[...]

     iteration #  6     ecut=    75.00 Ry     beta= 0.70
     Davidson diagonalization with overlap
     c_bands:  1 eigenvalues not converged
     ethr =  1.62E-08,  avg # of iterations = 18.2

[...]

     End of self-consistent calculation

          k = 0.0000 0.0000 0.0000 ( 11443 PWs)   bands (ev):

   -50.0482 -50.0480 -21.9702 -21.9689 -21.9687 -21.9685 -21.9682 -21.9608
   -12.2444 -12.2438 -12.2419 -12.2374 -12.2276 -12.2251 -12.0976 -12.0950
   -12.0822 -12.0804  -6.5335  -5.5670  -2.0155  -0.8276  -0.7264  -0.6382
    -0.2622  -0.2120   4.7420   5.0879   5.7832   6.2926   6.4704

[...]

          k =-0.5000-0.5537 0.0000 ( 11426 PWs)   bands (ev):

[...]

     the Fermi energy is     1.8177 ev

!    total energy              =    -755.96382616 Ry
     estimated scf accuracy    <          1.4E-09 Ry
     smearing contrib. (-TS)   =       0.00000000 Ry
     internal energy E=F+TS    =    -755.96382616 Ry

     The total energy is F=E-TS. E is the sum of the following terms:
     one-electron contribution =    -441.25077921 Ry
     hartree contribution      =     246.92066213 Ry
     xc contribution           =    -110.77301836 Ry
     ewald contribution        =    -228.15112852 Ry
     one-center paw contrib.   =    -222.70956221 Ry

     convergence has been achieved in  13 iterations

     Forces acting on atoms (cartesian axes, Ry/au):

     atom    1 type  2   force =     0.00000000    0.00006446    0.00000000
     atom    2 type  2   force =     0.00000000   -0.00006446    0.00000000
     atom    3 type  3   force =     0.00000000    0.00060552    0.00000000
     atom    4 type  3   force =     0.00000000   -0.00060552    0.00000000
     atom    5 type  1   force =     0.00000000    0.00290116   -0.00452791
     atom    6 type  1   force =     0.00000000    0.00290116    0.00452791
     atom    7 type  1   force =     0.00000000   -0.00290116   -0.00452791
     atom    8 type  1   force =     0.00000000   -0.00290116    0.00452791
     atom    9 type  1   force =     0.00446182   -0.00264719    0.00000000
     atom   10 type  1   force =     0.00446182    0.00264719    0.00000000
     atom   11 type  1   force =    -0.00446182    0.00264719    0.00000000
     atom   12 type  1   force =    -0.00446182   -0.00264719    0.00000000

     Total force =     0.014969     Total SCF correction =     0.000044

     Computing stress (Cartesian axis) and pressure

          total   stress  (Ry/bohr**3)                   (kbar)     P=       13.92
   0.00008774   0.00000000   0.00000000           12.91        0.00        0.00
   0.00000000   0.00010460   0.00000000            0.00       15.39        0.00
   0.00000000   0.00000000   0.00009150            0.00        0.00       13.46

     BFGS Geometry Optimization
     Energy error            =      0.0E+00 Ry
     Gradient error          =      4.5E-03 Ry/Bohr

     number of scf cycles    =   1
     number of bfgs steps    =   0

     energy             new  =    -755.9638261576 Ry

     new trust radius        =       0.0053776131 bohr
     new conv_thr            =       0.0000000100 Ry

ATOMIC_POSITIONS (crystal)
Ga            0.8419236483        0.1580763517        0.7500000000
Ga            0.1580763517        0.8419236483        0.2500000000
Na            0.6581404814        0.3418595186        0.2500000000
Na            0.3418595186        0.6581404814        0.7500000000
H             0.6898196213        0.3101803787        0.5706013785
H             0.6898196213        0.3101803787        0.9293986215
H             0.3101803787        0.6898196213        0.0706013785
H             0.3101803787        0.6898196213        0.4293986215
H             0.1750872293        0.1926794533        0.7500000000
H             0.1926794533        0.1750872293        0.2500000000
H             0.8249127707        0.8073205467        0.2500000000
H             0.8073205467        0.8249127707        0.7500000000

     Writing config-only to output data dir ./nagah4.save/
     NEW-OLD atomic charge density approx. for the potential

[...]

     Energy error            =      1.9E-04 Ry
     Gradient error          =      3.3E-03 Ry/Bohr

[...]

     energy             old  =    -755.9638261576 Ry
     energy             new  =    -755.9640202933 Ry

     CASE: energy            _new < energy            _old

[...]

     number of scf cycles    =   3
     number of bfgs steps    =   2

     energy             old  =    -755.9640202933 Ry
     energy             new  =    -755.9641666573 Ry

     CASE: energy            _new < energy            _old

     new trust radius        =       0.0088730617 bohr
     new conv_thr            =       0.0000000001 Ry

ATOMIC_POSITIONS (crystal)
Ga            0.8418726390        0.1581273610        0.7500000000
Ga            0.1581273610        0.8418726390        0.2500000000
Na            0.6579193184        0.3420806816        0.2500000000
Na            0.3420806816        0.6579193184        0.7500000000
H             0.6891700272        0.3108299728        0.5696546507
H             0.6891700272        0.3108299728        0.9303453493
H             0.3108299728        0.6891700272        0.0696546507
H             0.3108299728        0.6891700272        0.4303453493
H             0.1766627347        0.1930537308        0.7500000000
H             0.1930537308        0.1766627347        0.2500000000
H             0.8233372653        0.8069462692        0.2500000000
H             0.8069462692        0.8233372653        0.7500000000

     Writing config-only to output data dir ./nagah4.save/
     NEW-OLD atomic charge density approx. for the potential

     Self-consistent Calculation

[...]

     Threshold (ethr) on eigenvalues was too large:
     Diagonalizing with lowered threshold

     Davidson diagonalization with overlap
     ethr =  8.07E-08,  avg # of iterations =  2.3

[...]

     iteration #  6     ecut=    75.00 Ry     beta= 0.70
     Davidson diagonalization with overlap
     c_bands:  2 eigenvalues not converged
     ethr =  5.39E-12,  avg # of iterations = 11.7

     total energy              =    -755.96425163 Ry
     estimated scf accuracy    <          3.3E-10 Ry

     iteration #  7     ecut=    75.00 Ry     beta= 0.70
     Davidson diagonalization with overlap
     ethr =  6.27E-13,  avg # of iterations =  5.5

     End of self-consistent calculation

[...]

          k = 0.6667 0.0000-0.4942 ( 11446 PWs)   bands (ev):

[...]

          k =-1.0000 0.0000-0.4942 ( 11408 PWs)   bands (ev):

   -50.0314 -50.0314 -21.9561 -21.9561 -21.9541 -21.9541 -21.9473 -21.9473
   -12.2485 -12.2485 -12.2331 -12.2331 -12.2293 -12.2293 -12.1101 -12.1101
   -12.0955 -12.0955  -5.2456  -5.2456  -1.9339  -1.9339  -1.7384  -1.7384
    -1.0877  -1.0877   5.7017   5.7017   6.7297   6.7297   7.1639

     the Fermi energy is     1.7492 ev

!    total energy              =    -755.96425163 Ry
     estimated scf accuracy    <          1.2E-10 Ry
     smearing contrib. (-TS)   =       0.00000000 Ry
     internal energy E=F+TS    =    -755.96425163 Ry

     The total energy is F=E-TS. E is the sum of the following terms:
     one-electron contribution =    -440.67594649 Ry
     hartree contribution      =     246.60656195 Ry
     xc contribution           =    -110.74740624 Ry
     ewald contribution        =    -228.45919441 Ry
     one-center paw contrib.   =    -222.68826645 Ry

     convergence has been achieved in   7 iterations

     Forces acting on atoms (cartesian axes, Ry/au):

     atom    1 type  2   force =     0.00000000    0.00004397    0.00000000
     atom    2 type  2   force =     0.00000000   -0.00004397    0.00000000
     atom    3 type  3   force =     0.00000000    0.00044955    0.00000000
     atom    4 type  3   force =     0.00000000   -0.00044955    0.00000000
     atom    5 type  1   force =     0.00000000   -0.00011934   -0.00005150
     atom    6 type  1   force =     0.00000000   -0.00011934    0.00005150
     atom    7 type  1   force =     0.00000000    0.00011934   -0.00005150
     atom    8 type  1   force =     0.00000000    0.00011934    0.00005150
     atom    9 type  1   force =     0.00015096    0.00012109    0.00000000
     atom   10 type  1   force =     0.00015096   -0.00012109    0.00000000
     atom   11 type  1   force =    -0.00015096   -0.00012109    0.00000000
     atom   12 type  1   force =    -0.00015096    0.00012109    0.00000000

     Total force =     0.000791     Total SCF correction =     0.000016

     Computing stress (Cartesian axis) and pressure

          total   stress  (Ry/bohr**3)                   (kbar)     P=        9.02
   0.00005375   0.00000000   0.00000000            7.91        0.00        0.00
  -0.00000000   0.00007015   0.00000000           -0.00       10.32        0.00
   0.00000000   0.00000000   0.00006003            0.00        0.00        8.83

     Energy error            =      8.5E-05 Ry
     Gradient error          =      4.5E-04 Ry/Bohr

     bfgs converged in   4 scf cycles and   3 bfgs steps
     (criteria: energy <  1.0E-04 Ry, force <  1.0E-03 Ry/Bohr)

     End of BFGS Geometry Optimization

     Final energy             =    -755.9642516338 Ry

     File ./nagah4.bfgs deleted, as requested
Begin final coordinates

ATOMIC_POSITIONS (crystal)
Ga            0.8418726390        0.1581273610        0.7500000000
Ga            0.1581273610        0.8418726390        0.2500000000
Na            0.6579193184        0.3420806816        0.2500000000
Na            0.3420806816        0.6579193184        0.7500000000
H             0.6891700272        0.3108299728        0.5696546507
H             0.6891700272        0.3108299728        0.9303453493
H             0.3108299728        0.6891700272        0.0696546507
H             0.3108299728        0.6891700272        0.4303453493
H             0.1766627347        0.1930537308        0.7500000000
H             0.1930537308        0.1766627347        0.2500000000
H             0.8233372653        0.8069462692        0.2500000000
H             0.8069462692        0.8233372653        0.7500000000
End final coordinates

     Writing all to output data dir ./nagah4.save/

     General routines

     Parallel routines

   This run was terminated on:   9:20:37   1Dec2023

   JOB DONE.
Job execution finished at: Fri Dec  1 09:20:37 IST 2023