     Program PWSCF v.7.1 starts on 31Oct2023 at 20: 8:15

     Reading input from nah.in

     Current dimensions of program PWSCF are:
     Max number of different atomic species (ntypx) = 10
     Max number of k-points (npk) =  40000
     Max angular momentum in pseudopotentials (lmaxx) =  4
     Message from routine volume:
     axis vectors are left-handed

     IMPORTANT: XC functional enforced from input :
     Exchange-correlation= PBE
                           (   1   4   3   4   0   0   0)
     Any further DFT definition will be discarded
     Please, verify this is what you really want

     Message from routine setup:
     using ibrav=0 with symmetry is DISCOURAGED, use correct ibrav instead

     K-points division:     npool     =       8
     R & G space division:  proc/nbgrp/npool/nimage =      18
     Subspace diagonalization in iterative solution of the eigenvalue problem:
     a serial algorithm will be used

     Using Slab Decomposition

     bravais-lattice index     =            0
     lattice parameter (alat)  =       9.0194  a.u.
     unit-cell volume          =     183.4287 (a.u.)^3
     number of atoms/cell      =            2
     number of atomic types    =            2
     number of electrons       =        10.00
     number of Kohn-Sham states=            9
     kinetic-energy cutoff     =      75.0000  Ry
     charge density cutoff     =     375.0000  Ry
     scf convergence threshold =      1.0E-08
     mixing beta               =       0.7000
     number of iterations used =            8  plain     mixing
     energy convergence thresh.=      1.0E-04
     force convergence thresh. =      1.0E-03
     press convergence thresh. =      5.0E-01
     Exchange-correlation= PBE
                           (   1   4   3   4   0   0   0)
     nstep                     =           50

     celldm(1)=   9.019360  celldm(2)=   0.000000  celldm(3)=   0.000000
     celldm(4)=   0.000000  celldm(5)=   0.000000  celldm(6)=   0.000000

     crystal axes: (cart. coord. in units of alat)
               a(1) = (   0.500000   0.500000   0.000000 )
               a(2) = (   0.500000   0.000000   0.500000 )
               a(3) = (   0.000000   0.500000   0.500000 )

     reciprocal axes: (cart. coord. in units 2 pi/alat)
               b(1) = (  1.000000  1.000000 -1.000000 )
               b(2) = (  1.000000 -1.000000  1.000000 )
               b(3) = ( -1.000000  1.000000  1.000000 )

     PseudoPot. # 1 for H  read from file:
     /home/garima.iitr/.cache/.es/compmat/nah/H.pbe-rrkjus_psl.1.0.0.UPF
     MD5 check sum: 3f4114867bd07edc7f1424d066fc1888
     Pseudo is Ultrasoft, Zval =  1.0
     Generated using &quot;atomic&quot; code by A. Dal Corso  v.6.3MaX
     Using radial grid of  929 points,  2 beta functions with:
                l(1) =   0
                l(2) =   0
     Q(r) pseudized with 0 coefficients

     PseudoPot. # 2 for Na read from file:
     /home/garima.iitr/.cache/.es/compmat/nah/na_pbe_v1.5.uspp.F.UPF
     MD5 check sum: 44600605ef58000f06b90626533354dc
     Pseudo is Ultrasoft, Zval =  9.0
     Generated by new atomic code, or converted to UPF format
     Using radial grid of  819 points,  5 beta functions with:
                l(1) =   0
                l(2) =   0
                l(3) =   1
                l(4) =   1
                l(5) =   2
     Q(r) pseudized with  8 coefficients,  rinner =    1.250   1.250   1.250
                                                       1.250   1.250

     atomic species   valence    mass     pseudopotential
        H              1.00     1.00750     H ( 1.00)
        Na             9.00    22.98900     Na( 1.00)

     48 Sym. Ops., with inversion, found

   Cartesian axes

     site n.     atom                  positions (alat units)
         1           Na  tau(   1) = (   0.0000000   0.0000000   0.0000000  )
         2           H   tau(   2) = (   0.5000000   0.5000000   0.5000000  )

     number of k points=    16  Marzari-Vanderbilt smearing, width (Ry)=  0.0050
                       cart. coord. in units 2pi/alat
        k(    1) = (   0.0000000   0.0000000   0.0000000), wk =   0.0092593
        k(    2) = (  -0.1666667   0.1666667   0.1666667), wk =   0.0740741
        k(    3) = (  -0.3333333   0.3333333   0.3333333), wk =   0.0740741
        k(    4) = (   0.5000000  -0.5000000  -0.5000000), wk =   0.0370370
        k(    5) = (   0.0000000   0.0000000   0.3333333), wk =   0.0555556
        k(    6) = (  -0.1666667   0.1666667   0.5000000), wk =   0.2222222
        k(    7) = (   0.6666667  -0.6666667  -0.3333333), wk =   0.2222222
        k(    8) = (   0.5000000  -0.5000000  -0.1666667), wk =   0.2222222
        k(    9) = (   0.3333333  -0.3333333   0.0000000), wk =   0.1111111
        k(   10) = (   0.0000000   0.0000000   0.6666667), wk =   0.0555556
        k(   11) = (   0.8333333  -0.8333333  -0.1666667), wk =   0.2222222
        k(   12) = (   0.6666667  -0.6666667  -0.0000000), wk =   0.1111111
        k(   13) = (   0.0000000   0.0000000  -1.0000000), wk =   0.0277778
        k(   14) = (   1.0000000  -0.6666667  -0.3333333), wk =   0.2222222
        k(   15) = (   0.8333333  -0.5000000  -0.1666667), wk =   0.2222222
        k(   16) = (   0.0000000   0.3333333  -1.0000000), wk =   0.1111111

     Initial potential from superposition of free atoms

     starting charge       9.9937, renormalised to      10.0000
     Starting wfcs are    6 randomized atomic wfcs +    3 random wfcs

     Self-consistent Calculation

     iteration #  1     ecut=    75.00 Ry     beta= 0.70
     Davidson diagonalization with overlap
     ethr =  1.00E-02,  avg # of iterations =  5.5

     Threshold (ethr) on eigenvalues was too large:
     Diagonalizing with lowered threshold

     Davidson diagonalization with overlap
     ethr =  9.22E-04,  avg # of iterations =  1.0

     total energy              =     -96.52669142 Ry
     estimated scf accuracy    <       0.09182796 Ry

[...]

     End of self-consistent calculation

          k = 0.0000 0.0000 0.0000 (  1989 PWs)   bands (ev):

   -49.3510 -21.2312 -21.2312 -21.2312  -2.8981  11.5736  16.7061  16.7064
    17.7029

          k =-0.1667 0.1667 0.1667 (  2007 PWs)   bands (ev):

[...]

     the Fermi energy is     1.2796 ev

!    total energy              =     -96.54064924 Ry
     estimated scf accuracy    <          1.6E-09 Ry
     smearing contrib. (-TS)   =       0.00000000 Ry
     internal energy E=F+TS    =     -96.54064924 Ry

     The total energy is F=E-TS. E is the sum of the following terms:
     one-electron contribution =     -78.09933266 Ry
     hartree contribution      =      40.50708725 Ry
     xc contribution           =     -15.09009649 Ry
     ewald contribution        =     -43.85830734 Ry

     convergence has been achieved in   6 iterations

     Forces acting on atoms (cartesian axes, Ry/au):

     atom    1 type  2   force =     0.00000000    0.00000000    0.00000000
     atom    2 type  1   force =     0.00000000    0.00000000    0.00000000

     Total force =     0.000000     Total SCF correction =     0.000000

     Computing stress (Cartesian axis) and pressure

          total   stress  (Ry/bohr**3)                   (kbar)     P=        9.65
   0.00006563   0.00000000  -0.00000000            9.65        0.00       -0.00
   0.00000000   0.00006563  -0.00000000            0.00        9.65       -0.00
   0.00000000  -0.00000000   0.00006563            0.00       -0.00        9.65

     BFGS Geometry Optimization
     Energy error            =      0.0E+00 Ry
     Gradient error          =      0.0E+00 Ry/Bohr
     Cell gradient error     =      9.7E+00 kbar

     number of scf cycles    =   1
     number of bfgs steps    =   0

     enthalpy           new  =     -96.5406492405 Ry

     new trust radius        =       0.0044440264 bohr
     Message from routine volume:
     axis vectors are left-handed
     new conv_thr            =       0.0000000100 Ry

     new unit-cell volume =    184.33298 a.u.^3 (    27.31533 Ang^3 )
     density =      1.45878 g/cm^3

CELL_PARAMETERS (alat=  9.01936044)
   0.500820319   0.500820319  -0.000000000
   0.500820319  -0.000000000   0.500820319
   0.000000000   0.500820319   0.500820319

ATOMIC_POSITIONS (crystal)
Na            0.0000000000        0.0000000000        0.0000000000
H             0.5000000000        0.5000000000        0.5000000000

     Writing config-only to output data dir temp/NaH.save/
     NEW-OLD atomic charge density approx. for the potential
     extrapolated charge   10.04903, renormalised to   10.00000

[...]

     Energy error            =      5.7E-05 Ry
     Gradient error          =      4.1E-32 Ry/Bohr
     Cell gradient error     =      9.6E+00 kbar

[...]

     enthalpy           old  =     -96.5406492405 Ry
     enthalpy           new  =     -96.5407062799 Ry

     CASE: enthalpy          _new < enthalpy          _old

     WARNING: bfgs curvature condition failed, Theta= 0.806
     new trust radius        =       0.0048924374 bohr
     Message from routine volume:
     axis vectors are left-handed
     new conv_thr            =            1.0E-10 Ry

[...]

     Energy error            =      5.6E-05 Ry
     Gradient error          =      5.5E-31 Ry/Bohr
     Cell gradient error     =      2.1E+00 kbar

     number of scf cycles    =   5
     number of bfgs steps    =   4

     enthalpy           old  =     -96.5408229037 Ry
     enthalpy           new  =     -96.5408787901 Ry

     CASE: enthalpy          _new < enthalpy          _old

     new trust radius        =       0.0078500874 bohr
     Message from routine volume:
     axis vectors are left-handed
     new conv_thr            =            1.0E-10 Ry

     new unit-cell volume =    190.73022 a.u.^3 (    28.26330 Ang^3 )
     density =      1.40985 g/cm^3

[...]

ATOMIC_POSITIONS (crystal)
Na           -0.0000000000       -0.0000000000        0.0000000000
H             0.5000000000        0.5000000000        0.5000000000

     Writing config-only to output data dir temp/NaH.save/
     NEW-OLD atomic charge density approx. for the potential
     extrapolated charge   10.08509, renormalised to   10.00000

[...]

     Energy error            =      1.2E-05 Ry
     Gradient error          =      6.5E-31 Ry/Bohr
     Cell gradient error     =      4.6E-02 kbar
     Message from routine volume:
     axis vectors are left-handed

     bfgs converged in   6 scf cycles and   5 bfgs steps
     (criteria: energy <  1.0E-04 Ry, force <  1.0E-03 Ry/Bohr, cell <  5.0E-01 kbar)

     End of BFGS Geometry Optimization

     Final enthalpy           =     -96.5408911273 Ry

     File temp/NaH.bfgs deleted, as requested
Begin final coordinates
     new unit-cell volume =    190.73022 a.u.^3 (    28.26330 Ang^3 )
     density =      1.40985 g/cm^3

CELL_PARAMETERS (alat=  9.01936044)
   0.506548187   0.506548187  -0.000000000
   0.506548187  -0.000000000   0.506548187
  -0.000000000   0.506548187   0.506548187

ATOMIC_POSITIONS (crystal)
Na           -0.0000000000       -0.0000000000        0.0000000000
H             0.5000000000        0.5000000000        0.5000000000
End final coordinates

     Writing config-only to output data dir temp/NaH.save/

     Final scf calculation at the relaxed structure.
     The G-vectors are recalculated for the final unit cell
     Results may differ from those at the preceding step.

     Using Slab Decomposition

     bravais-lattice index     =            0
     lattice parameter (alat)  =       9.0194  a.u.
     unit-cell volume          =     190.7302 (a.u.)^3
     number of atoms/cell      =            2
     number of atomic types    =            2
     number of electrons       =        10.00
     number of Kohn-Sham states=            9
     kinetic-energy cutoff     =      75.0000  Ry
     charge density cutoff     =     375.0000  Ry
     scf convergence threshold =      1.0E-10
     mixing beta               =       0.7000
     number of iterations used =            8  plain     mixing
     press convergence thresh. =      5.0E-01
     Exchange-correlation= PBE
                           (   1   4   3   4   0   0   0)

     celldm(1)=   9.019360  celldm(2)=   0.000000  celldm(3)=   0.000000
     celldm(4)=   0.000000  celldm(5)=   0.000000  celldm(6)=   0.000000

     crystal axes: (cart. coord. in units of alat)
               a(1) = (   0.506548   0.506548  -0.000000 )
               a(2) = (   0.506548  -0.000000   0.506548 )
               a(3) = (  -0.000000   0.506548   0.506548 )

     reciprocal axes: (cart. coord. in units 2 pi/alat)
               b(1) = (  0.987073  0.987073 -0.987073 )
               b(2) = (  0.987073 -0.987073  0.987073 )
               b(3) = ( -0.987073  0.987073  0.987073 )

     PseudoPot. # 1 for H  read from file:
     /home/garima.iitr/.cache/.es/compmat/nah/H.pbe-rrkjus_psl.1.0.0.UPF
     MD5 check sum: 3f4114867bd07edc7f1424d066fc1888
     Pseudo is Ultrasoft, Zval =  1.0
     Generated using &quot;atomic&quot; code by A. Dal Corso  v.6.3MaX
     Using radial grid of  929 points,  2 beta functions with:
                l(1) =   0
                l(2) =   0
     Q(r) pseudized with 0 coefficients

     PseudoPot. # 2 for Na read from file:
     /home/garima.iitr/.cache/.es/compmat/nah/na_pbe_v1.5.uspp.F.UPF
     MD5 check sum: 44600605ef58000f06b90626533354dc
     Pseudo is Ultrasoft, Zval =  9.0
     Generated by new atomic code, or converted to UPF format
     Using radial grid of  819 points,  5 beta functions with:
                l(1) =   0
                l(2) =   0
                l(3) =   1
                l(4) =   1
                l(5) =   2
     Q(r) pseudized with  8 coefficients,  rinner =    1.250   1.250   1.250
                                                       1.250   1.250

     atomic species   valence    mass     pseudopotential
        H              1.00     1.00750     H ( 1.00)
        Na             9.00    22.98900     Na( 1.00)

     48 Sym. Ops., with inversion, found

   Cartesian axes

     site n.     atom                  positions (alat units)
         1           Na  tau(   1) = (  -0.0000000   0.0000000   0.0000000  )
         2           H   tau(   2) = (   0.5065482   0.5065482   0.5065482  )

     number of k points=    16  Marzari-Vanderbilt smearing, width (Ry)=  0.0050
                       cart. coord. in units 2pi/alat
        k(    1) = (   0.0000000   0.0000000   0.0000000), wk =   0.0092593
        k(    2) = (  -0.1645122   0.1645122   0.1645122), wk =   0.0740741
        k(    3) = (  -0.3290243   0.3290243   0.3290243), wk =   0.0740741
        k(    4) = (   0.4935365  -0.4935365  -0.4935365), wk =   0.0370370
        k(    5) = (   0.0000000   0.0000000   0.3290243), wk =   0.0555556
        k(    6) = (  -0.1645122   0.1645122   0.4935365), wk =   0.2222222
        k(    7) = (   0.6580486  -0.6580486  -0.3290243), wk =   0.2222222
        k(    8) = (   0.4935365  -0.4935365  -0.1645122), wk =   0.2222222
        k(    9) = (   0.3290243  -0.3290243   0.0000000), wk =   0.1111111
        k(   10) = (   0.0000000   0.0000000   0.6580486), wk =   0.0555556
        k(   11) = (   0.8225608  -0.8225608  -0.1645122), wk =   0.2222222
        k(   12) = (   0.6580486  -0.6580486   0.0000000), wk =   0.1111111
        k(   13) = (   0.0000000   0.0000000  -0.9870729), wk =   0.0277778
        k(   14) = (   0.9870729  -0.6580486  -0.3290243), wk =   0.2222222
        k(   15) = (   0.8225608  -0.4935365  -0.1645122), wk =   0.2222222
        k(   16) = (   0.0000000   0.3290243  -0.9870729), wk =   0.1111111

     Initial potential from superposition of free atoms

     starting charge       9.9937, renormalised to      10.0000
     Starting wfcs are    6 randomized atomic wfcs +    3 random wfcs

     Self-consistent Calculation

     iteration #  1     ecut=    75.00 Ry     beta= 0.70
     Davidson diagonalization with overlap
     c_bands:  3 eigenvalues not converged
     ethr =  1.00E-06,  avg # of iterations = 14.4

[...]

     total energy              =     -96.54091100 Ry
     estimated scf accuracy    <          1.7E-09 Ry

     iteration #  7     ecut=    75.00 Ry     beta= 0.70
     Davidson diagonalization with overlap
     ethr =  1.66E-11,  avg # of iterations =  2.0

     End of self-consistent calculation

[...]

          k =-0.1645 0.1645 0.4935 (  2090 PWs)   bands (ev):

[...]

          k = 0.0000 0.3290-0.9871 (  2114 PWs)   bands (ev):

   -49.6004 -21.5635 -21.5378 -21.5265   0.5797   5.8754   7.7514   9.3397
    15.6806

     the Fermi energy is     2.2013 ev

!    total energy              =     -96.54091100 Ry
     estimated scf accuracy    <          7.5E-12 Ry
     smearing contrib. (-TS)   =       0.00000000 Ry
     internal energy E=F+TS    =     -96.54091100 Ry

     The total energy is F=E-TS. E is the sum of the following terms:
     one-electron contribution =     -79.06601232 Ry
     hartree contribution      =      40.89555028 Ry
     xc contribution           =     -15.07910131 Ry
     ewald contribution        =     -43.29134765 Ry

     convergence has been achieved in   7 iterations

     Forces acting on atoms (cartesian axes, Ry/au):

     atom    1 type  2   force =    -0.00000000    0.00000000    0.00000000
     atom    2 type  1   force =     0.00000000   -0.00000000   -0.00000000

     Total force =     0.000000     Total SCF correction =     0.000000

     Computing stress (Cartesian axis) and pressure

          total   stress  (Ry/bohr**3)                   (kbar)     P=        0.16
   0.00000111   0.00000000   0.00000000            0.16        0.00        0.00
   0.00000000   0.00000111   0.00000000            0.00        0.16        0.00
  -0.00000000   0.00000000   0.00000111           -0.00        0.00        0.16

     General routines

     Parallel routines

   This run was terminated on:  20: 8:17  31Oct2023

   JOB DONE.
Job execution finished at: Tue Oct 31 20:08:17 IST 2023