     Program PWSCF v.7.1 starts on 27Nov2023 at 17:19:50

     Reading input from k3alh6.in

     Current dimensions of program PWSCF are:
     Max number of different atomic species (ntypx) = 10
     Max number of k-points (npk) =  40000
     Max angular momentum in pseudopotentials (lmaxx) =  4
     file Al.pbe-n-kjpaw_psl.1.0.0.UPF: wavefunction(s)  3S 3P renormalized
     file K.pbe-spn-kjpaw_psl.1.0.0.UPF: wavefunction(s)  3S renormalized

     IMPORTANT: XC functional enforced from input :
     Exchange-correlation= PBE
                           (   1   4   3   4   0   0   0)
     Any further DFT definition will be discarded
     Please, verify this is what you really want

     Message from routine setup:
     using ibrav=0 with symmetry is DISCOURAGED, use correct ibrav instead

     K-points division:     npool     =       3
     R & G space division:  proc/nbgrp/npool/nimage =      48
     Subspace diagonalization in iterative solution of the eigenvalue problem:
     a serial algorithm will be used

     Using Slab Decomposition

     bravais-lattice index     =            0
     lattice parameter (alat)  =      11.2914  a.u.
     unit-cell volume          =    2056.0729 (a.u.)^3
     number of atoms/cell      =           20
     number of atomic types    =            3
     number of electrons       =        72.00
     number of Kohn-Sham states=           43
     kinetic-energy cutoff     =      75.0000  Ry
     charge density cutoff     =     375.0000  Ry
     scf convergence threshold =      1.0E-08
     mixing beta               =       0.7000
     number of iterations used =            8  plain     mixing
     energy convergence thresh.=      1.0E-04
     force convergence thresh. =      1.0E-03
     Exchange-correlation= PBE
                           (   1   4   3   4   0   0   0)
     nstep                     =           50

     celldm(1)=  11.291378  celldm(2)=   0.000000  celldm(3)=   0.000000
     celldm(4)=   0.000000  celldm(5)=   0.000000  celldm(6)=   0.000000

     crystal axes: (cart. coord. in units of alat)
               a(1) = (   1.000000   0.000000   0.000000 )
               a(2) = (   0.000000   1.006241   0.000000 )
               a(3) = (  -0.986032   0.000000   1.419371 )

     reciprocal axes: (cart. coord. in units 2 pi/alat)
               b(1) = (  1.000000  0.000000  0.694696 )
               b(2) = (  0.000000  0.993798  0.000000 )
               b(3) = (  0.000000  0.000000  0.704538 )

     PseudoPot. # 1 for Al read from file:
     /home/garima.iitr/.cache/.es/compmat/kalh4/Al.pbe-n-kjpaw_psl.1.0.0.UPF
     MD5 check sum: 502b6b27b9c6270cab5dd1084b96fa6d
     Pseudo is Projector augmented-wave + core cor, Zval =  3.0
     Generated using &quot;atomic&quot; code by A. Dal Corso  v.6.3
     Shape of augmentation charge: PSQ
     Using radial grid of 1135 points,  6 beta functions with:
                l(1) =   0
                l(2) =   0
                l(3) =   1
                l(4) =   1
                l(5) =   2
                l(6) =   2
     Q(r) pseudized with 0 coefficients

     PseudoPot. # 2 for H  read from file:
     /home/garima.iitr/.cache/.es/compmat/kalh4/H.pbe-rrkjus_psl.1.0.0.UPF
     MD5 check sum: 3f4114867bd07edc7f1424d066fc1888
     Pseudo is Ultrasoft, Zval =  1.0
     Generated using &quot;atomic&quot; code by A. Dal Corso  v.6.3MaX
     Using radial grid of  929 points,  2 beta functions with:
                l(1) =   0
                l(2) =   0
     Q(r) pseudized with 0 coefficients

     PseudoPot. # 3 for K  read from file:
     /home/garima.iitr/.cache/.es/compmat/kalh4/K.pbe-spn-kjpaw_psl.1.0.0.UPF
     MD5 check sum: 34cc42130a09071ebe376fd42eb21491
     Pseudo is Projector augmented-wave + core cor, Zval =  9.0
     Generated using &quot;atomic&quot; code by A. Dal Corso  v.6.2.2
     Shape of augmentation charge: PSQ
     Using radial grid of 1165 points,  6 beta functions with:
                l(1) =   0
                l(2) =   0
                l(3) =   1
                l(4) =   1
                l(5) =   2
                l(6) =   2
     Q(r) pseudized with 0 coefficients

     atomic species   valence    mass     pseudopotential
        Al             3.00    26.98100     Al( 1.00)
        H              1.00     1.00750     H ( 1.00)
        K              9.00    39.09830     K ( 1.00)

      4 Sym. Ops., with inversion, found ( 2 have fractional translation)

   Cartesian axes

     site n.     atom                  positions (alat units)
         1           K   tau(   1) = (   0.4973490   0.5316069   0.3535085  )
         2           K   tau(   2) = (  -0.4833806   0.4746336   1.0658623  )
         3           K   tau(   3) = (   0.0096352   0.0284867   0.3561769  )
         4           K   tau(   4) = (   0.0043331   0.9777538   1.0631939  )
         5           K   tau(   5) = (  -0.4930158   0.0000000   0.7096854  )
         6           K   tau(   6) = (   0.0000000   0.5031203   0.0000000  )
         7           Al  tau(   7) = (   0.5000000   0.0000000   0.0000000  )
         8           Al  tau(   8) = (   0.0069842   0.5031203   0.7096854  )
         9           H   tau(   9) = (   0.1734345   0.7428369   0.6589145  )
        10           H   tau(  10) = (  -0.1594662   0.2634036   0.7604563  )
        11           H   tau(  11) = (   0.3335496   0.2397167   0.0507709  )
        12           H   tau(  12) = (  -0.3195813   0.7665238   1.3685999  )
        13           H   tau(  13) = (  -0.2499678   0.1721979   1.3780955  )
        14           H   tau(  14) = (   0.2639362   0.8340426   0.0412753  )
        15           H   tau(  15) = (  -0.2290796   0.6753182   0.7509607  )
        16           H   tau(  16) = (   0.2430480   0.3309223   0.6684101  )
        17           H   tau(  17) = (   0.0688195   0.5227017   0.9977893  )
        18           H   tau(  18) = (  -0.0548511   0.4835388   0.4215815  )
        19           H   tau(  19) = (  -0.5478669   0.0195814   1.1312669  )
        20           H   tau(  20) = (   0.5618353   0.9866591   0.2881039  )

     number of k points=    80  Marzari-Vanderbilt smearing, width (Ry)=  0.0050
                       cart. coord. in units 2pi/alat
        k(    1) = (   0.0000000   0.0000000   0.0000000), wk =   0.0092593
        k(    2) = (   0.0000000   0.0000000   0.1174229), wk =   0.0185185
        k(    3) = (   0.0000000   0.0000000   0.2348459), wk =   0.0185185
        k(    4) = (   0.0000000   0.0000000  -0.3522688), wk =   0.0092593
        k(    5) = (   0.0000000   0.1656330   0.0000000), wk =   0.0185185
        k(    6) = (   0.0000000   0.1656330   0.1174229), wk =   0.0370370
        k(    7) = (   0.0000000   0.1656330   0.2348459), wk =   0.0370370
        k(    8) = (   0.0000000   0.1656330  -0.3522688), wk =   0.0185185
        k(    9) = (   0.0000000   0.3312661   0.0000000), wk =   0.0185185
        k(   10) = (   0.0000000   0.3312661   0.1174229), wk =   0.0370370
        k(   11) = (   0.0000000   0.3312661   0.2348459), wk =   0.0370370
        k(   12) = (   0.0000000   0.3312661  -0.3522688), wk =   0.0185185
        k(   13) = (   0.0000000  -0.4968991   0.0000000), wk =   0.0092593
        k(   14) = (   0.0000000  -0.4968991   0.1174229), wk =   0.0185185
        k(   15) = (   0.0000000  -0.4968991   0.2348459), wk =   0.0185185
        k(   16) = (   0.0000000  -0.4968991  -0.3522688), wk =   0.0092593
        k(   17) = (   0.1666667   0.0000000   0.1157827), wk =   0.0185185
        k(   18) = (   0.1666667   0.0000000   0.2332056), wk =   0.0185185
        k(   19) = (   0.1666667   0.0000000   0.3506286), wk =   0.0185185
        k(   20) = (   0.1666667   0.0000000  -0.2364861), wk =   0.0185185
        k(   21) = (   0.1666667   0.0000000  -0.1190631), wk =   0.0185185
        k(   22) = (   0.1666667   0.0000000  -0.0016402), wk =   0.0185185
        k(   23) = (   0.1666667   0.1656330   0.1157827), wk =   0.0370370
        k(   24) = (   0.1666667   0.1656330   0.2332056), wk =   0.0370370
        k(   25) = (   0.1666667   0.1656330   0.3506286), wk =   0.0370370
        k(   26) = (   0.1666667   0.1656330  -0.2364861), wk =   0.0370370
        k(   27) = (   0.1666667   0.1656330  -0.1190631), wk =   0.0370370
        k(   28) = (   0.1666667   0.1656330  -0.0016402), wk =   0.0370370
        k(   29) = (   0.1666667   0.3312661   0.1157827), wk =   0.0370370
        k(   30) = (   0.1666667   0.3312661   0.2332056), wk =   0.0370370
        k(   31) = (   0.1666667   0.3312661   0.3506286), wk =   0.0370370
        k(   32) = (   0.1666667   0.3312661  -0.2364861), wk =   0.0370370
        k(   33) = (   0.1666667   0.3312661  -0.1190631), wk =   0.0370370
        k(   34) = (   0.1666667   0.3312661  -0.0016402), wk =   0.0370370
        k(   35) = (   0.1666667  -0.4968991   0.1157827), wk =   0.0185185
        k(   36) = (   0.1666667  -0.4968991   0.2332056), wk =   0.0185185
        k(   37) = (   0.1666667  -0.4968991   0.3506286), wk =   0.0185185
        k(   38) = (   0.1666667  -0.4968991  -0.2364861), wk =   0.0185185
        k(   39) = (   0.1666667  -0.4968991  -0.1190631), wk =   0.0185185
        k(   40) = (   0.1666667  -0.4968991  -0.0016402), wk =   0.0185185
        k(   41) = (   0.3333333   0.0000000   0.2315654), wk =   0.0185185
        k(   42) = (   0.3333333   0.0000000   0.3489884), wk =   0.0185185
        k(   43) = (   0.3333333   0.0000000   0.4664113), wk =   0.0185185
        k(   44) = (   0.3333333   0.0000000  -0.1207033), wk =   0.0185185
        k(   45) = (   0.3333333   0.0000000  -0.0032804), wk =   0.0185185
        k(   46) = (   0.3333333   0.0000000   0.1141425), wk =   0.0185185
        k(   47) = (   0.3333333   0.1656330   0.2315654), wk =   0.0370370
        k(   48) = (   0.3333333   0.1656330   0.3489884), wk =   0.0370370
        k(   49) = (   0.3333333   0.1656330   0.4664113), wk =   0.0370370
        k(   50) = (   0.3333333   0.1656330  -0.1207033), wk =   0.0370370
        k(   51) = (   0.3333333   0.1656330  -0.0032804), wk =   0.0370370
        k(   52) = (   0.3333333   0.1656330   0.1141425), wk =   0.0370370
        k(   53) = (   0.3333333   0.3312661   0.2315654), wk =   0.0370370
        k(   54) = (   0.3333333   0.3312661   0.3489884), wk =   0.0370370
        k(   55) = (   0.3333333   0.3312661   0.4664113), wk =   0.0370370
        k(   56) = (   0.3333333   0.3312661  -0.1207033), wk =   0.0370370
        k(   57) = (   0.3333333   0.3312661  -0.0032804), wk =   0.0370370
        k(   58) = (   0.3333333   0.3312661   0.1141425), wk =   0.0370370
        k(   59) = (   0.3333333  -0.4968991   0.2315654), wk =   0.0185185
        k(   60) = (   0.3333333  -0.4968991   0.3489884), wk =   0.0185185
[...]
        k(   66) = (  -0.5000000   0.0000000  -0.2299252), wk =   0.0185185
        k(   67) = (  -0.5000000   0.0000000  -0.1125023), wk =   0.0185185
        k(   68) = (  -0.5000000   0.0000000  -0.6996169), wk =   0.0092593
        k(   69) = (  -0.5000000   0.1656330  -0.3473482), wk =   0.0185185
        k(   70) = (  -0.5000000   0.1656330  -0.2299252), wk =   0.0370370
        k(   71) = (  -0.5000000   0.1656330  -0.1125023), wk =   0.0370370
        k(   72) = (  -0.5000000   0.1656330  -0.6996169), wk =   0.0185185
        k(   73) = (  -0.5000000   0.3312661  -0.3473482), wk =   0.0185185
        k(   74) = (  -0.5000000   0.3312661  -0.2299252), wk =   0.0370370
        k(   75) = (  -0.5000000   0.3312661  -0.1125023), wk =   0.0370370
        k(   76) = (  -0.5000000   0.3312661  -0.6996169), wk =   0.0185185
        k(   77) = (  -0.5000000  -0.4968991  -0.3473482), wk =   0.0092593
        k(   78) = (  -0.5000000  -0.4968991  -0.2299252), wk =   0.0185185
        k(   79) = (  -0.5000000  -0.4968991  -0.1125023), wk =   0.0185185
        k(   80) = (  -0.5000000  -0.4968991  -0.6996169), wk =   0.0092593

     Check: negative core charge=   -0.000002

     Initial potential from superposition of free atoms

     starting charge      71.8823, renormalised to      72.0000
     Starting wfcs are   68 randomized atomic wfcs
     Checking if some PAW data can be deallocated...

     Self-consistent Calculation

     iteration #  1     ecut=    75.00 Ry     beta= 0.70
     Davidson diagonalization with overlap
     ethr =  1.00E-02,  avg # of iterations =  6.0

     total energy              =    -771.13794917 Ry
     estimated scf accuracy    <       1.27125080 Ry

[...]

     iteration #  4     ecut=    75.00 Ry     beta= 0.70
     Davidson diagonalization with overlap
     c_bands:  1 eigenvalues not converged
     ethr =  7.06E-06,  avg # of iterations =  9.4

[...]

     iteration #  5     ecut=    75.00 Ry     beta= 0.70
     Davidson diagonalization with overlap
     c_bands:  1 eigenvalues not converged
     ethr =  3.70E-07,  avg # of iterations =  4.7

[...]

     End of self-consistent calculation

          k = 0.0000 0.0000 0.0000 ( 22501 PWs)   bands (ev):

   -26.8840 -26.8649 -26.8588 -26.8537 -26.7418 -26.7279 -10.5973 -10.5798
   -10.4693 -10.4587 -10.4447 -10.4236 -10.4229 -10.4220 -10.4178 -10.3242
   -10.3234 -10.3193 -10.2937 -10.2141 -10.1956 -10.1897 -10.1539 -10.1381
    -3.3026  -2.8493   0.0297   0.5183   0.5217   0.5257   0.5489   0.5608
     1.7275   2.0723   2.1645   2.4676   5.5051   5.9508   7.2554   7.3090
     7.5210   8.0208   8.0213

[...]

          k =-0.5000 0.0000-0.3473 ( 22574 PWs)   bands (ev):

[...]

     the Fermi energy is     4.5553 ev

!    total energy              =    -771.38246312 Ry
     estimated scf accuracy    <          8.5E-09 Ry
     smearing contrib. (-TS)   =       0.00000000 Ry
     internal energy E=F+TS    =    -771.38246312 Ry

     The total energy is F=E-TS. E is the sum of the following terms:
     one-electron contribution =    -133.90704188 Ry
     hartree contribution      =      88.39576176 Ry
     xc contribution           =     -81.54534389 Ry
     ewald contribution        =    -242.48587231 Ry
     one-center paw contrib.   =    -401.83996680 Ry

     convergence has been achieved in   7 iterations

     Forces acting on atoms (cartesian axes, Ry/au):

     atom    1 type  3   force =     0.00006306   -0.00047224   -0.00005994
     atom    2 type  3   force =    -0.00006306    0.00047224    0.00005994
     atom    3 type  3   force =    -0.00006306   -0.00047224    0.00005994
     atom    4 type  3   force =     0.00006306    0.00047224   -0.00005994
     atom    5 type  3   force =     0.00000000    0.00000000    0.00000000
     atom    6 type  3   force =     0.00000000    0.00000000    0.00000000
     atom    7 type  1   force =     0.00000000    0.00000000    0.00000000
     atom    8 type  1   force =     0.00000000    0.00000000    0.00000000
     atom    9 type  2   force =     0.00187707    0.00254013   -0.00043823
     atom   10 type  2   force =    -0.00187707   -0.00254013    0.00043823
     atom   11 type  2   force =    -0.00187707    0.00254013    0.00043823
     atom   12 type  2   force =     0.00187707   -0.00254013   -0.00043823
     atom   13 type  2   force =     0.00241903    0.00204684   -0.00049667
     atom   14 type  2   force =    -0.00241903   -0.00204684    0.00049667
     atom   15 type  2   force =    -0.00241903    0.00204684    0.00049667
     atom   16 type  2   force =     0.00241903   -0.00204684   -0.00049667
     atom   17 type  2   force =     0.00082369    0.00010949    0.00317211
     atom   18 type  2   force =    -0.00082369   -0.00010949   -0.00317211
     atom   19 type  2   force =    -0.00082369    0.00010949   -0.00317211
     atom   20 type  2   force =     0.00082369   -0.00010949    0.00317211

     Total force =     0.011214     Total SCF correction =     0.000068

     Computing stress (Cartesian axis) and pressure

          total   stress  (Ry/bohr**3)                   (kbar)     P=        7.93
   0.00005314   0.00000000   0.00000006            7.82        0.00        0.01
   0.00000000   0.00005346   0.00000000            0.00        7.86        0.00
   0.00000006   0.00000000   0.00005511            0.01        0.00        8.11

     BFGS Geometry Optimization
     Energy error            =      0.0E+00 Ry
     Gradient error          =      3.2E-03 Ry/Bohr

     number of scf cycles    =   1
     number of bfgs steps    =   0

     energy             new  =    -771.3824631188 Ry

     new trust radius        =       0.0032791333 bohr
     new conv_thr            =       0.0000000100 Ry

ATOMIC_POSITIONS (crystal)
K             0.7429318977        0.5282684366        0.2490562602
K             0.2570681023        0.4717315634        0.7509437398
K             0.2570681023        0.0282684366        0.2509437398
K             0.7429318977        0.9717315634        0.7490562602
K            -0.0000000000        0.0000000000        0.5000000000
K             0.0000000000        0.5000000000        0.0000000000
Al            0.5000000000        0.0000000000        0.0000000000
Al            0.5000000000        0.5000000000        0.5000000000
H             0.6313192772        0.7384535666        0.4642026564
H             0.3686807228        0.2615464334        0.5357973436
H             0.3686807228        0.2384535666        0.0357973436
H             0.6313192772        0.7615464334        0.9642026564
H             0.7075736796        0.1713101507        0.9708890100
H             0.2924263204        0.8286898493        0.0291109900
H             0.2924263204        0.6713101507        0.5291109900
H             0.7075736796        0.3286898493        0.4708890100
H             0.7622481112        0.5194696368        0.7031779269
H             0.2377518888        0.4805303632        0.2968220731
H             0.2377518888        0.0194696368        0.7968220731
H             0.7622481112        0.9805303632        0.2031779269

     Writing config-only to output data dir ./k3alh6.save/
     NEW-OLD atomic charge density approx. for the potential

[...]

     Threshold (ethr) on eigenvalues was too large:
     Diagonalizing with lowered threshold

     Davidson diagonalization with overlap
     ethr =  1.66E-08,  avg # of iterations =  2.0

[...]

     Energy error            =      1.1E-04 Ry
     Gradient error          =      2.6E-03 Ry/Bohr

[...]

     energy             old  =    -771.3824631188 Ry
     energy             new  =    -771.3825774023 Ry

     CASE: energy            _new < energy            _old

     WARNING: bfgs curvature condition failed, Theta= 0.975
     new trust radius        =       0.0036070466 bohr
     new conv_thr            =       0.0000000001 Ry

[...]

     number of scf cycles    =   3
     number of bfgs steps    =   2

     energy             old  =    -771.3825774023 Ry
     energy             new  =    -771.3826770084 Ry

     CASE: energy            _new < energy            _old

     new trust radius        =       0.0054105699 bohr
     new conv_thr            =            1.0E-10 Ry

ATOMIC_POSITIONS (crystal)
K             0.7429433753        0.5281183457        0.2490437660
K             0.2570566247        0.4718816543        0.7509562340
K             0.2570566247        0.0281183457        0.2509562340
K             0.7429433753        0.9718816543        0.7490437660
K            -0.0000000000        0.0000000000        0.5000000000
K             0.0000000000        0.5000000000        0.0000000000
Al            0.5000000000        0.0000000000        0.0000000000
Al            0.5000000000        0.5000000000        0.5000000000
H             0.6317091292        0.7390654155        0.4641293597
H             0.3682908708        0.2609345845        0.5358706403
H             0.3682908708        0.2390654155        0.0358706403
H             0.6317091292        0.7609345845        0.9641293597
H             0.7080581533        0.1718112348        0.9707961772
H             0.2919418467        0.8281887652        0.0292038228
H             0.2919418467        0.6718112348        0.5292038228
H             0.7080581533        0.3281887652        0.4707961772
H             0.7630006381        0.5194887107        0.7037187813
H             0.2369993619        0.4805112893        0.2962812187
H             0.2369993619        0.0194887107        0.7962812187
H             0.7630006381        0.9805112893        0.2037187813

     Writing config-only to output data dir ./k3alh6.save/
     NEW-OLD atomic charge density approx. for the potential

     Check: negative core charge=   -0.000002

     Self-consistent Calculation

[...]

     Threshold (ethr) on eigenvalues was too large:
     Diagonalizing with lowered threshold

     Davidson diagonalization with overlap
     ethr =  4.61E-08,  avg # of iterations =  2.0

[...]

     total energy              =    -771.38277563 Ry
     estimated scf accuracy    <          4.2E-10 Ry

     iteration #  6     ecut=    75.00 Ry     beta= 0.70
     Davidson diagonalization with overlap
     ethr =  5.85E-13,  avg # of iterations =  4.6

     End of self-consistent calculation

[...]

          k = 0.3333-0.4969 0.1141 ( 22552 PWs)   bands (ev):

[...]

          k =-0.5000-0.4969-0.6996 ( 22540 PWs)   bands (ev):

   -26.8597 -26.8597 -26.8549 -26.8549 -26.7267 -26.7267 -10.6031 -10.6031
   -10.5456 -10.5456 -10.4668 -10.4668 -10.3300 -10.3300 -10.3268 -10.3268
   -10.3128 -10.3128 -10.2765 -10.2765 -10.1612 -10.1612 -10.1277 -10.1277
    -2.8357  -2.8357   0.0330   0.0330   0.5413   0.5413   0.5497   0.5497
     1.7195   1.7195   2.3602   2.3602   6.1040   6.1040   7.8056   7.8057
     8.0959   8.0959   8.4629

     the Fermi energy is     4.5555 ev

!    total energy              =    -771.38277563 Ry
     estimated scf accuracy    <          5.5E-11 Ry
     smearing contrib. (-TS)   =       0.00000000 Ry
     internal energy E=F+TS    =    -771.38277563 Ry

     The total energy is F=E-TS. E is the sum of the following terms:
     one-electron contribution =    -133.94763086 Ry
     hartree contribution      =      88.42075682 Ry
     xc contribution           =     -81.53284174 Ry
     ewald contribution        =    -242.48517348 Ry
     one-center paw contrib.   =    -401.83788636 Ry

     convergence has been achieved in   6 iterations

     Forces acting on atoms (cartesian axes, Ry/au):

     atom    1 type  3   force =     0.00007462   -0.00041374   -0.00004488
     atom    2 type  3   force =    -0.00007462    0.00041374    0.00004488
     atom    3 type  3   force =    -0.00007462   -0.00041374    0.00004488
     atom    4 type  3   force =     0.00007462    0.00041374   -0.00004488
     atom    5 type  3   force =     0.00000000    0.00000000    0.00000000
     atom    6 type  3   force =     0.00000000    0.00000000    0.00000000
     atom    7 type  1   force =     0.00000000    0.00000000    0.00000000
     atom    8 type  1   force =     0.00000000    0.00000000    0.00000000
     atom    9 type  2   force =     0.00064587    0.00080182   -0.00012467
     atom   10 type  2   force =    -0.00064587   -0.00080182    0.00012467
     atom   11 type  2   force =    -0.00064587    0.00080182    0.00012467
     atom   12 type  2   force =     0.00064587   -0.00080182   -0.00012467
     atom   13 type  2   force =     0.00069689    0.00070809   -0.00023890
     atom   14 type  2   force =    -0.00069689   -0.00070809    0.00023890
     atom   15 type  2   force =    -0.00069689    0.00070809    0.00023890
     atom   16 type  2   force =     0.00069689   -0.00070809   -0.00023890
     atom   17 type  2   force =     0.00039746   -0.00001833    0.00099952
     atom   18 type  2   force =    -0.00039746    0.00001833   -0.00099952
     atom   19 type  2   force =    -0.00039746   -0.00001833   -0.00099952
     atom   20 type  2   force =     0.00039746    0.00001833    0.00099952

     Total force =     0.003718     Total SCF correction =     0.000023

     Computing stress (Cartesian axis) and pressure

          total   stress  (Ry/bohr**3)                   (kbar)     P=        6.82
   0.00004592   0.00000000  -0.00000000            6.76        0.00       -0.00
   0.00000000   0.00004554   0.00000000            0.00        6.70        0.00
  -0.00000000   0.00000000   0.00004753           -0.00        0.00        6.99

     Energy error            =      9.9E-05 Ry
     Gradient error          =      1.0E-03 Ry/Bohr

     bfgs converged in   4 scf cycles and   3 bfgs steps
     (criteria: energy <  1.0E-04 Ry, force <  1.0E-03 Ry/Bohr)

     End of BFGS Geometry Optimization

     Final energy             =    -771.3827756253 Ry

     File ./k3alh6.bfgs deleted, as requested
Begin final coordinates

ATOMIC_POSITIONS (crystal)
K             0.7429433753        0.5281183457        0.2490437660
K             0.2570566247        0.4718816543        0.7509562340
K             0.2570566247        0.0281183457        0.2509562340
K             0.7429433753        0.9718816543        0.7490437660
K            -0.0000000000        0.0000000000        0.5000000000
K             0.0000000000        0.5000000000        0.0000000000
Al            0.5000000000        0.0000000000        0.0000000000
Al            0.5000000000        0.5000000000        0.5000000000
H             0.6317091292        0.7390654155        0.4641293597
H             0.3682908708        0.2609345845        0.5358706403
H             0.3682908708        0.2390654155        0.0358706403
H             0.6317091292        0.7609345845        0.9641293597
H             0.7080581533        0.1718112348        0.9707961772
H             0.2919418467        0.8281887652        0.0292038228
H             0.2919418467        0.6718112348        0.5292038228
H             0.7080581533        0.3281887652        0.4707961772
H             0.7630006381        0.5194887107        0.7037187813
H             0.2369993619        0.4805112893        0.2962812187
H             0.2369993619        0.0194887107        0.7962812187
H             0.7630006381        0.9805112893        0.2037187813
End final coordinates

     Writing all to output data dir ./k3alh6.save/

     General routines

     Parallel routines

   This run was terminated on:  17:20:47  27Nov2023

   JOB DONE.
Job execution finished at: Mon Nov 27 17:20:48 IST 2023