     Program PWSCF v.7.1 starts on 27Nov2023 at 19:39:57

     Reading input from k3alh6.in

     Current dimensions of program PWSCF are:
     Max number of different atomic species (ntypx) = 10
     Max number of k-points (npk) =  40000
     Max angular momentum in pseudopotentials (lmaxx) =  4
     file Al.pbe-n-kjpaw_psl.1.0.0.UPF: wavefunction(s)  3S 3P renormalized
     file K.pbe-spn-kjpaw_psl.1.0.0.UPF: wavefunction(s)  3S renormalized

     IMPORTANT: XC functional enforced from input :
     Exchange-correlation= PBE
                           (   1   4   3   4   0   0   0)
     Any further DFT definition will be discarded
     Please, verify this is what you really want

     Message from routine setup:
     using ibrav=0 with symmetry is DISCOURAGED, use correct ibrav instead

     K-points division:     npool     =       3
     R & G space division:  proc/nbgrp/npool/nimage =      48
     Subspace diagonalization in iterative solution of the eigenvalue problem:
     a serial algorithm will be used

     Using Slab Decomposition

     bravais-lattice index     =            0
     lattice parameter (alat)  =      11.2914  a.u.
     unit-cell volume          =    2056.0729 (a.u.)^3
     number of atoms/cell      =           20
     number of atomic types    =            3
     number of electrons       =        72.00
     number of Kohn-Sham states=           43
     kinetic-energy cutoff     =      75.0000  Ry
     charge density cutoff     =     375.0000  Ry
     scf convergence threshold =      1.0E-08
     mixing beta               =       0.7000
     number of iterations used =            8  plain     mixing
     energy convergence thresh.=      1.0E-04
     force convergence thresh. =      1.0E-03
     press convergence thresh. =      5.0E-01
     Exchange-correlation= PBE
                           (   1   4   3   4   0   0   0)
     nstep                     =           50

     celldm(1)=  11.291378  celldm(2)=   0.000000  celldm(3)=   0.000000
     celldm(4)=   0.000000  celldm(5)=   0.000000  celldm(6)=   0.000000

     crystal axes: (cart. coord. in units of alat)
               a(1) = (   1.000000   0.000000   0.000000 )
               a(2) = (   0.000000   1.006241   0.000000 )
               a(3) = (  -0.986032   0.000000   1.419371 )

     reciprocal axes: (cart. coord. in units 2 pi/alat)
               b(1) = (  1.000000  0.000000  0.694696 )
               b(2) = (  0.000000  0.993798  0.000000 )
               b(3) = (  0.000000  0.000000  0.704538 )

     PseudoPot. # 1 for Al read from file:
     /home/garima.iitr/.cache/.es/compmat/kalh4/Al.pbe-n-kjpaw_psl.1.0.0.UPF
     MD5 check sum: 502b6b27b9c6270cab5dd1084b96fa6d
     Pseudo is Projector augmented-wave + core cor, Zval =  3.0
     Generated using &quot;atomic&quot; code by A. Dal Corso  v.6.3
     Shape of augmentation charge: PSQ
     Using radial grid of 1135 points,  6 beta functions with:
                l(1) =   0
                l(2) =   0
                l(3) =   1
                l(4) =   1
                l(5) =   2
                l(6) =   2
     Q(r) pseudized with 0 coefficients

     PseudoPot. # 2 for H  read from file:
     /home/garima.iitr/.cache/.es/compmat/kalh4/H.pbe-rrkjus_psl.1.0.0.UPF
     MD5 check sum: 3f4114867bd07edc7f1424d066fc1888
     Pseudo is Ultrasoft, Zval =  1.0
     Generated using &quot;atomic&quot; code by A. Dal Corso  v.6.3MaX
     Using radial grid of  929 points,  2 beta functions with:
                l(1) =   0
                l(2) =   0
     Q(r) pseudized with 0 coefficients

     PseudoPot. # 3 for K  read from file:
     /home/garima.iitr/.cache/.es/compmat/kalh4/K.pbe-spn-kjpaw_psl.1.0.0.UPF
     MD5 check sum: 34cc42130a09071ebe376fd42eb21491
     Pseudo is Projector augmented-wave + core cor, Zval =  9.0
     Generated using &quot;atomic&quot; code by A. Dal Corso  v.6.2.2
     Shape of augmentation charge: PSQ
     Using radial grid of 1165 points,  6 beta functions with:
                l(1) =   0
                l(2) =   0
                l(3) =   1
                l(4) =   1
                l(5) =   2
                l(6) =   2
     Q(r) pseudized with 0 coefficients

     atomic species   valence    mass     pseudopotential
        Al             3.00    26.98100     Al( 1.00)
        H              1.00     1.00750     H ( 1.00)
        K              9.00    39.09830     K ( 1.00)

      4 Sym. Ops., with inversion, found ( 2 have fractional translation)

   Cartesian axes

     site n.     atom                  positions (alat units)
         1           K   tau(   1) = (   0.4973783   0.5314141   0.3534854  )
         2           K   tau(   2) = (  -0.4834100   0.4748264   1.0658853  )
         3           K   tau(   3) = (   0.0096058   0.0282938   0.3561999  )
         4           K   tau(   4) = (   0.0043625   0.9779467   1.0631708  )
         5           K   tau(   5) = (  -0.4930158   0.0000000   0.7096854  )
         6           K   tau(   6) = (   0.0000000   0.5031203   0.0000000  )
         7           Al  tau(   7) = (   0.5000000   0.0000000   0.0000000  )
         8           Al  tau(   8) = (   0.0069842   0.5031203   0.7096854  )
         9           H   tau(   9) = (   0.1740629   0.7436776   0.6587716  )
        10           H   tau(  10) = (  -0.1600945   0.2625629   0.7605991  )
        11           H   tau(  11) = (   0.3329213   0.2405573   0.0509137  )
        12           H   tau(  12) = (  -0.3189529   0.7656832   1.3684570  )
        13           H   tau(  13) = (  -0.2491776   0.1728834   1.3779197  )
        14           H   tau(  14) = (   0.2631460   0.8333571   0.0414511  )
        15           H   tau(  15) = (  -0.2298699   0.6760037   0.7511364  )
        16           H   tau(  16) = (   0.2438382   0.3302368   0.6682343  )
        17           H   tau(  17) = (   0.0691117   0.5227306   0.9988379  )
        18           H   tau(  18) = (  -0.0551433   0.4835099   0.4205329  )
        19           H   tau(  19) = (  -0.5481591   0.0196103   1.1302183  )
        20           H   tau(  20) = (   0.5621275   0.9866302   0.2891525  )

     number of k points=    80  Marzari-Vanderbilt smearing, width (Ry)=  0.0050
                       cart. coord. in units 2pi/alat
        k(    1) = (   0.0000000   0.0000000   0.0000000), wk =   0.0092593
        k(    2) = (   0.0000000   0.0000000   0.1174229), wk =   0.0185185
        k(    3) = (   0.0000000   0.0000000   0.2348459), wk =   0.0185185
        k(    4) = (   0.0000000   0.0000000  -0.3522688), wk =   0.0092593
        k(    5) = (   0.0000000   0.1656330   0.0000000), wk =   0.0185185
        k(    6) = (   0.0000000   0.1656330   0.1174229), wk =   0.0370370
        k(    7) = (   0.0000000   0.1656330   0.2348459), wk =   0.0370370
        k(    8) = (   0.0000000   0.1656330  -0.3522688), wk =   0.0185185
        k(    9) = (   0.0000000   0.3312661   0.0000000), wk =   0.0185185
        k(   10) = (   0.0000000   0.3312661   0.1174229), wk =   0.0370370
        k(   11) = (   0.0000000   0.3312661   0.2348459), wk =   0.0370370
        k(   12) = (   0.0000000   0.3312661  -0.3522688), wk =   0.0185185
        k(   13) = (   0.0000000  -0.4968991   0.0000000), wk =   0.0092593
        k(   14) = (   0.0000000  -0.4968991   0.1174229), wk =   0.0185185
        k(   15) = (   0.0000000  -0.4968991   0.2348459), wk =   0.0185185
        k(   16) = (   0.0000000  -0.4968991  -0.3522688), wk =   0.0092593
        k(   17) = (   0.1666667   0.0000000   0.1157827), wk =   0.0185185
        k(   18) = (   0.1666667   0.0000000   0.2332056), wk =   0.0185185
        k(   19) = (   0.1666667   0.0000000   0.3506286), wk =   0.0185185
        k(   20) = (   0.1666667   0.0000000  -0.2364861), wk =   0.0185185
        k(   21) = (   0.1666667   0.0000000  -0.1190631), wk =   0.0185185
        k(   22) = (   0.1666667   0.0000000  -0.0016402), wk =   0.0185185
        k(   23) = (   0.1666667   0.1656330   0.1157827), wk =   0.0370370
        k(   24) = (   0.1666667   0.1656330   0.2332056), wk =   0.0370370
        k(   25) = (   0.1666667   0.1656330   0.3506286), wk =   0.0370370
        k(   26) = (   0.1666667   0.1656330  -0.2364861), wk =   0.0370370
        k(   27) = (   0.1666667   0.1656330  -0.1190631), wk =   0.0370370
        k(   28) = (   0.1666667   0.1656330  -0.0016402), wk =   0.0370370
        k(   29) = (   0.1666667   0.3312661   0.1157827), wk =   0.0370370
        k(   30) = (   0.1666667   0.3312661   0.2332056), wk =   0.0370370
        k(   31) = (   0.1666667   0.3312661   0.3506286), wk =   0.0370370
        k(   32) = (   0.1666667   0.3312661  -0.2364861), wk =   0.0370370
        k(   33) = (   0.1666667   0.3312661  -0.1190631), wk =   0.0370370
        k(   34) = (   0.1666667   0.3312661  -0.0016402), wk =   0.0370370
        k(   35) = (   0.1666667  -0.4968991   0.1157827), wk =   0.0185185
        k(   36) = (   0.1666667  -0.4968991   0.2332056), wk =   0.0185185
        k(   37) = (   0.1666667  -0.4968991   0.3506286), wk =   0.0185185
        k(   38) = (   0.1666667  -0.4968991  -0.2364861), wk =   0.0185185
        k(   39) = (   0.1666667  -0.4968991  -0.1190631), wk =   0.0185185
        k(   40) = (   0.1666667  -0.4968991  -0.0016402), wk =   0.0185185
        k(   41) = (   0.3333333   0.0000000   0.2315654), wk =   0.0185185
        k(   42) = (   0.3333333   0.0000000   0.3489884), wk =   0.0185185
        k(   43) = (   0.3333333   0.0000000   0.4664113), wk =   0.0185185
        k(   44) = (   0.3333333   0.0000000  -0.1207033), wk =   0.0185185
        k(   45) = (   0.3333333   0.0000000  -0.0032804), wk =   0.0185185
        k(   46) = (   0.3333333   0.0000000   0.1141425), wk =   0.0185185
        k(   47) = (   0.3333333   0.1656330   0.2315654), wk =   0.0370370
        k(   48) = (   0.3333333   0.1656330   0.3489884), wk =   0.0370370
        k(   49) = (   0.3333333   0.1656330   0.4664113), wk =   0.0370370
        k(   50) = (   0.3333333   0.1656330  -0.1207033), wk =   0.0370370
        k(   51) = (   0.3333333   0.1656330  -0.0032804), wk =   0.0370370
        k(   52) = (   0.3333333   0.1656330   0.1141425), wk =   0.0370370
        k(   53) = (   0.3333333   0.3312661   0.2315654), wk =   0.0370370
        k(   54) = (   0.3333333   0.3312661   0.3489884), wk =   0.0370370
        k(   55) = (   0.3333333   0.3312661   0.4664113), wk =   0.0370370
        k(   56) = (   0.3333333   0.3312661  -0.1207033), wk =   0.0370370
        k(   57) = (   0.3333333   0.3312661  -0.0032804), wk =   0.0370370
        k(   58) = (   0.3333333   0.3312661   0.1141425), wk =   0.0370370
        k(   59) = (   0.3333333  -0.4968991   0.2315654), wk =   0.0185185
        k(   60) = (   0.3333333  -0.4968991   0.3489884), wk =   0.0185185
[...]
        k(   66) = (  -0.5000000   0.0000000  -0.2299252), wk =   0.0185185
        k(   67) = (  -0.5000000   0.0000000  -0.1125023), wk =   0.0185185
        k(   68) = (  -0.5000000   0.0000000  -0.6996169), wk =   0.0092593
        k(   69) = (  -0.5000000   0.1656330  -0.3473482), wk =   0.0185185
[...]
   0.000000000   1.014962038   0.000000000
  -0.994769294   0.000000000   1.432589018

ATOMIC_POSITIONS (crystal)
K             0.7429052342        0.5276304280        0.2489751263
K             0.2570947658        0.4723695720        0.7510248737
K             0.2570947658        0.0276304280        0.2510248737
K             0.7429052342        0.9723695720        0.7489751263
K             0.0000000000        0.0000000000        0.5000000000
K             0.0000000000        0.5000000000        0.0000000000
Al            0.5000000000        0.0000000000        0.0000000000
Al            0.5000000000        0.5000000000        0.5000000000
H             0.6313508132        0.7383270340        0.4642071423
H             0.3686491868        0.2616729660        0.5357928577
H             0.3686491868        0.2383270340        0.0357928577
H             0.6313508132        0.7616729660        0.9642071423
H             0.7070436218        0.1714037026        0.9706930592
H             0.2929563782        0.8285962974        0.0293069408
H             0.2929563782        0.6714037026        0.5293069408
H             0.7070436218        0.3285962974        0.4706930592
H             0.7625430353        0.5194084537        0.7030498642
H             0.2374569647        0.4805915463        0.2969501358
H             0.2374569647        0.0194084537        0.7969501358
H             0.7625430353        0.9805915463        0.2030498642
End final coordinates

     Writing config-only to output data dir ./k3alh6.save/

     Final scf calculation at the relaxed structure.
     The G-vectors are recalculated for the final unit cell
     Results may differ from those at the preceding step.

     Using Slab Decomposition

     bravais-lattice index     =            0
     lattice parameter (alat)  =      11.2914  a.u.
     unit-cell volume          =    2112.1641 (a.u.)^3
     number of atoms/cell      =           20
     number of atomic types    =            3
     number of electrons       =        72.00
     number of Kohn-Sham states=           43
     kinetic-energy cutoff     =      75.0000  Ry
     charge density cutoff     =     375.0000  Ry
     scf convergence threshold =      1.0E-10
     mixing beta               =       0.7000
     number of iterations used =            8  plain     mixing
     press convergence thresh. =      5.0E-01
     Exchange-correlation= PBE
                           (   1   4   3   4   0   0   0)

     celldm(1)=  11.291378  celldm(2)=   0.000000  celldm(3)=   0.000000
     celldm(4)=   0.000000  celldm(5)=   0.000000  celldm(6)=   0.000000

     crystal axes: (cart. coord. in units of alat)
               a(1) = (   1.008993   0.000000   0.000091 )
               a(2) = (   0.000000   1.014962   0.000000 )
               a(3) = (  -0.994769   0.000000   1.432589 )

     reciprocal axes: (cart. coord. in units 2 pi/alat)
               b(1) = (  0.991025  0.000000  0.688154 )
               b(2) = (  0.000000  0.985259  0.000000 )
               b(3) = ( -0.000063  0.000000  0.697993 )

     PseudoPot. # 1 for Al read from file:
     /home/garima.iitr/.cache/.es/compmat/kalh4/Al.pbe-n-kjpaw_psl.1.0.0.UPF
     MD5 check sum: 502b6b27b9c6270cab5dd1084b96fa6d
     Pseudo is Projector augmented-wave + core cor, Zval =  3.0
     Generated using &quot;atomic&quot; code by A. Dal Corso  v.6.3
     Shape of augmentation charge: PSQ
     Using radial grid of 1135 points,  6 beta functions with:
                l(1) =   0
                l(2) =   0
                l(3) =   1
                l(4) =   1
                l(5) =   2
                l(6) =   2
     Q(r) pseudized with 0 coefficients

     PseudoPot. # 2 for H  read from file:
     /home/garima.iitr/.cache/.es/compmat/kalh4/H.pbe-rrkjus_psl.1.0.0.UPF
     MD5 check sum: 3f4114867bd07edc7f1424d066fc1888
     Pseudo is Ultrasoft, Zval =  1.0
     Generated using &quot;atomic&quot; code by A. Dal Corso  v.6.3MaX
     Using radial grid of  929 points,  2 beta functions with:
                l(1) =   0
                l(2) =   0
     Q(r) pseudized with 0 coefficients

     PseudoPot. # 3 for K  read from file:
     /home/garima.iitr/.cache/.es/compmat/kalh4/K.pbe-spn-kjpaw_psl.1.0.0.UPF
     MD5 check sum: 34cc42130a09071ebe376fd42eb21491
     Pseudo is Projector augmented-wave + core cor, Zval =  9.0
     Generated using &quot;atomic&quot; code by A. Dal Corso  v.6.2.2
     Shape of augmentation charge: PSQ
     Using radial grid of 1165 points,  6 beta functions with:
                l(1) =   0
                l(2) =   0
                l(3) =   1
                l(4) =   1
                l(5) =   2
                l(6) =   2
     Q(r) pseudized with 0 coefficients

     atomic species   valence    mass     pseudopotential
        Al             3.00    26.98100     Al( 1.00)
        H              1.00     1.00750     H ( 1.00)
        K              9.00    39.09830     K ( 1.00)

      4 Sym. Ops., with inversion, found ( 2 have fractional translation)

   Cartesian axes

     site n.     atom                  positions (alat units)
         1           K   tau(   1) = (   0.5019133   0.5355249   0.3567469  )
         2           K   tau(   2) = (  -0.4876897   0.4794372   1.0759335  )
         3           K   tau(   3) = (   0.0096949   0.0280438   0.3596390  )
         4           K   tau(   4) = (   0.0045286   0.9869182   1.0730414  )
         5           K   tau(   5) = (  -0.4973846   0.0000000   0.7162945  )
         6           K   tau(   6) = (   0.0000000   0.5074810   0.0000000  )
         7           Al  tau(   7) = (   0.5044964   0.0000000   0.0000457  )
         8           Al  tau(   8) = (   0.0071118   0.5074810   0.7163402  )
         9           H   tau(   9) = (   0.1752495   0.7493739   0.6650757  )
        10           H   tau(  10) = (  -0.1610259   0.2655881   0.7676046  )
        11           H   tau(  11) = (   0.3363588   0.2418929   0.0513101  )
        12           H   tau(  12) = (  -0.3221352   0.7730691   1.3813702  )
        13           H   tau(  13) = (  -0.2522137   0.1739683   1.3906688  )
        14           H   tau(  14) = (   0.2664373   0.8409938   0.0420116  )
        15           H   tau(  15) = (  -0.2309474   0.6814493   0.7583061  )
        16           H   tau(  16) = (   0.2451710   0.3335128   0.6743743  )
        17           H   tau(  17) = (   0.0700281   0.5271799   1.0072512  )
        18           H   tau(  18) = (  -0.0558045   0.4877822   0.4254292  )
        19           H   tau(  19) = (  -0.5531891   0.0196988   1.1417237  )
        20           H   tau(  20) = (   0.5674127   0.9952632   0.2909566  )

     number of k points=    80  Marzari-Vanderbilt smearing, width (Ry)=  0.0050
                       cart. coord. in units 2pi/alat
        k(    1) = (   0.0000000   0.0000000   0.0000000), wk =   0.0092593
        k(    2) = (  -0.0000105   0.0000000   0.1163322), wk =   0.0185185
        k(    3) = (  -0.0000211   0.0000000   0.2326643), wk =   0.0185185
        k(    4) = (   0.0000316   0.0000000  -0.3489965), wk =   0.0092593
        k(    5) = (   0.0000000   0.1642098   0.0000000), wk =   0.0185185
        k(    6) = (  -0.0000105   0.1642098   0.1163322), wk =   0.0370370
        k(    7) = (  -0.0000211   0.1642098   0.2326643), wk =   0.0370370
        k(    8) = (   0.0000316   0.1642098  -0.3489965), wk =   0.0185185
        k(    9) = (   0.0000000   0.3284195   0.0000000), wk =   0.0185185
        k(   10) = (  -0.0000105   0.3284195   0.1163322), wk =   0.0370370
        k(   11) = (  -0.0000211   0.3284195   0.2326643), wk =   0.0370370
        k(   12) = (   0.0000316   0.3284195  -0.3489965), wk =   0.0185185
        k(   13) = (   0.0000000  -0.4926293   0.0000000), wk =   0.0092593
        k(   14) = (  -0.0000105  -0.4926293   0.1163322), wk =   0.0185185
        k(   15) = (  -0.0000211  -0.4926293   0.2326643), wk =   0.0185185
        k(   16) = (   0.0000316  -0.4926293  -0.3489965), wk =   0.0092593
        k(   17) = (   0.1651708   0.0000000   0.1146923), wk =   0.0185185
        k(   18) = (   0.1651603   0.0000000   0.2310244), wk =   0.0185185
        k(   19) = (   0.1651498   0.0000000   0.3473566), wk =   0.0185185
        k(   20) = (   0.1652024   0.0000000  -0.2343043), wk =   0.0185185
        k(   21) = (   0.1651919   0.0000000  -0.1179721), wk =   0.0185185
        k(   22) = (   0.1651814   0.0000000  -0.0016399), wk =   0.0185185
        k(   23) = (   0.1651708   0.1642098   0.1146923), wk =   0.0370370
        k(   24) = (   0.1651603   0.1642098   0.2310244), wk =   0.0370370
        k(   25) = (   0.1651498   0.1642098   0.3473566), wk =   0.0370370
        k(   26) = (   0.1652024   0.1642098  -0.2343043), wk =   0.0370370
        k(   27) = (   0.1651919   0.1642098  -0.1179721), wk =   0.0370370
        k(   28) = (   0.1651814   0.1642098  -0.0016399), wk =   0.0370370
        k(   29) = (   0.1651708   0.3284195   0.1146923), wk =   0.0370370
        k(   30) = (   0.1651603   0.3284195   0.2310244), wk =   0.0370370
        k(   31) = (   0.1651498   0.3284195   0.3473566), wk =   0.0370370
        k(   32) = (   0.1652024   0.3284195  -0.2343043), wk =   0.0370370
        k(   33) = (   0.1651919   0.3284195  -0.1179721), wk =   0.0370370
        k(   34) = (   0.1651814   0.3284195  -0.0016399), wk =   0.0370370
        k(   35) = (   0.1651708  -0.4926293   0.1146923), wk =   0.0185185
        k(   36) = (   0.1651603  -0.4926293   0.2310244), wk =   0.0185185
        k(   37) = (   0.1651498  -0.4926293   0.3473566), wk =   0.0185185
        k(   38) = (   0.1652024  -0.4926293  -0.2343043), wk =   0.0185185
        k(   39) = (   0.1651919  -0.4926293  -0.1179721), wk =   0.0185185
        k(   40) = (   0.1651814  -0.4926293  -0.0016399), wk =   0.0185185
        k(   41) = (   0.3303417   0.0000000   0.2293845), wk =   0.0185185
        k(   42) = (   0.3303311   0.0000000   0.3457167), wk =   0.0185185
        k(   43) = (   0.3303206   0.0000000   0.4620489), wk =   0.0185185
        k(   44) = (   0.3303733   0.0000000  -0.1196120), wk =   0.0185185
        k(   45) = (   0.3303627   0.0000000  -0.0032798), wk =   0.0185185
        k(   46) = (   0.3303522   0.0000000   0.1130523), wk =   0.0185185
        k(   47) = (   0.3303417   0.1642098   0.2293845), wk =   0.0370370
        k(   48) = (   0.3303311   0.1642098   0.3457167), wk =   0.0370370
        k(   49) = (   0.3303206   0.1642098   0.4620489), wk =   0.0370370
        k(   50) = (   0.3303733   0.1642098  -0.1196120), wk =   0.0370370
        k(   51) = (   0.3303627   0.1642098  -0.0032798), wk =   0.0370370
        k(   52) = (   0.3303522   0.1642098   0.1130523), wk =   0.0370370
        k(   53) = (   0.3303417   0.3284195   0.2293845), wk =   0.0370370
        k(   54) = (   0.3303311   0.3284195   0.3457167), wk =   0.0370370
        k(   55) = (   0.3303206   0.3284195   0.4620489), wk =   0.0370370
        k(   56) = (   0.3303733   0.3284195  -0.1196120), wk =   0.0370370
        k(   57) = (   0.3303627   0.3284195  -0.0032798), wk =   0.0370370
        k(   58) = (   0.3303522   0.3284195   0.1130523), wk =   0.0370370
        k(   59) = (   0.3303417  -0.4926293   0.2293845), wk =   0.0185185
        k(   60) = (   0.3303311  -0.4926293   0.3457167), wk =   0.0185185
[...]
        k(   66) = (  -0.4955230   0.0000000  -0.2277446), wk =   0.0185185
        k(   67) = (  -0.4955336   0.0000000  -0.1114124), wk =   0.0185185
        k(   68) = (  -0.4954809   0.0000000  -0.6930733), wk =   0.0092593
        k(   69) = (  -0.4955125   0.1642098  -0.3440768), wk =   0.0185185
        k(   70) = (  -0.4955230   0.1642098  -0.2277446), wk =   0.0370370
        k(   71) = (  -0.4955336   0.1642098  -0.1114124), wk =   0.0370370
        k(   72) = (  -0.4954809   0.1642098  -0.6930733), wk =   0.0185185
        k(   73) = (  -0.4955125   0.3284195  -0.3440768), wk =   0.0185185
        k(   74) = (  -0.4955230   0.3284195  -0.2277446), wk =   0.0370370
        k(   75) = (  -0.4955336   0.3284195  -0.1114124), wk =   0.0370370
        k(   76) = (  -0.4954809   0.3284195  -0.6930733), wk =   0.0185185
        k(   77) = (  -0.4955125  -0.4926293  -0.3440768), wk =   0.0092593
        k(   78) = (  -0.4955230  -0.4926293  -0.2277446), wk =   0.0185185
        k(   79) = (  -0.4955336  -0.4926293  -0.1114124), wk =   0.0185185
        k(   80) = (  -0.4954809  -0.4926293  -0.6930733), wk =   0.0092593

     Check: negative core charge=   -0.000001

     Initial potential from superposition of free atoms

     starting charge      71.8823, renormalised to      72.0000
     Starting wfcs are   68 randomized atomic wfcs
     Checking if some PAW data can be deallocated...

     Self-consistent Calculation

[...]

     iteration #  4     ecut=    75.00 Ry     beta= 0.70
     Davidson diagonalization with overlap
     c_bands:  1 eigenvalues not converged
     ethr =  7.51E-06,  avg # of iterations =  9.9

[...]

     total energy              =    -771.38406034 Ry
     estimated scf accuracy    <          1.5E-09 Ry

     iteration #  9     ecut=    75.00 Ry     beta= 0.70
     Davidson diagonalization with overlap
     ethr =  2.14E-12,  avg # of iterations =  4.0

     End of self-consistent calculation

[...]

          k = 0.3304-0.4926 0.1131 ( 23174 PWs)   bands (ev):

[...]

          k =-0.4955-0.4926-0.6931 ( 23208 PWs)   bands (ev):

   -27.0730 -27.0730 -27.0688 -27.0688 -26.9454 -26.9454 -10.7921 -10.7921
   -10.7385 -10.7385 -10.6664 -10.6664 -10.5432 -10.5432 -10.5379 -10.5379
   -10.5262 -10.5262 -10.4898 -10.4898 -10.3832 -10.3832 -10.3530 -10.3530
    -2.9562  -2.9562  -0.0991  -0.0991   0.3903   0.3903   0.3983   0.3983
     1.5733   1.5733   2.2095   2.2095   5.9261   5.9261   7.5533   7.5533
     7.9042   7.9042   8.2613

     the Fermi energy is     4.3527 ev

!    total energy              =    -771.38406034 Ry
     estimated scf accuracy    <          9.4E-11 Ry
     smearing contrib. (-TS)   =      -0.00000000 Ry
     internal energy E=F+TS    =    -771.38406034 Ry

     The total energy is F=E-TS. E is the sum of the following terms:
     one-electron contribution =    -137.33547108 Ry
     hartree contribution      =      89.55947853 Ry
     xc contribution           =     -81.44620002 Ry
     ewald contribution        =    -240.32887781 Ry
     one-center paw contrib.   =    -401.83298996 Ry

     convergence has been achieved in   9 iterations

     Forces acting on atoms (cartesian axes, Ry/au):

     atom    1 type  3   force =    -0.00003261   -0.00011748   -0.00006232
     atom    2 type  3   force =     0.00003261    0.00011748    0.00006232
     atom    3 type  3   force =     0.00003261   -0.00011748    0.00006232
     atom    4 type  3   force =    -0.00003261    0.00011748   -0.00006232
     atom    5 type  3   force =     0.00000000    0.00000000    0.00000000
     atom    6 type  3   force =     0.00000000    0.00000000    0.00000000
     atom    7 type  1   force =     0.00000000    0.00000000    0.00000000
     atom    8 type  1   force =     0.00000000    0.00000000    0.00000000
     atom    9 type  2   force =     0.00002488   -0.00003230   -0.00006226
     atom   10 type  2   force =    -0.00002488    0.00003230    0.00006226
     atom   11 type  2   force =    -0.00002488   -0.00003230    0.00006226
     atom   12 type  2   force =     0.00002488    0.00003230   -0.00006226
     atom   13 type  2   force =    -0.00008035    0.00009071   -0.00014255
     atom   14 type  2   force =     0.00008035   -0.00009071    0.00014255
     atom   15 type  2   force =     0.00008035    0.00009071    0.00014255
     atom   16 type  2   force =    -0.00008035   -0.00009071   -0.00014255
     atom   17 type  2   force =     0.00014521    0.00001270   -0.00003820
     atom   18 type  2   force =    -0.00014521   -0.00001270    0.00003820
     atom   19 type  2   force =    -0.00014521    0.00001270    0.00003820
     atom   20 type  2   force =     0.00014521   -0.00001270   -0.00003820

     Total force =     0.000573     Total SCF correction =     0.000009

     Computing stress (Cartesian axis) and pressure

          total   stress  (Ry/bohr**3)                   (kbar)     P=       -0.15
  -0.00000069   0.00000000   0.00000018           -0.10        0.00        0.03
   0.00000000  -0.00000150   0.00000000            0.00       -0.22        0.00
   0.00000018   0.00000000  -0.00000092            0.03        0.00       -0.14

     Writing all to output data dir ./k3alh6.save/

     General routines

     Parallel routines

   This run was terminated on:  19:43:49  27Nov2023

   JOB DONE.
Job execution finished at: Mon Nov 27 19:43:49 IST 2023