     Program PWSCF v.7.1 starts on 27Nov2023 at 17:18:49

     Reading input from kalh4.in

     Current dimensions of program PWSCF are:
     Max number of different atomic species (ntypx) = 10
     Max number of k-points (npk) =  40000
     Max angular momentum in pseudopotentials (lmaxx) =  4
     file Al.pbe-n-kjpaw_psl.1.0.0.UPF: wavefunction(s)  3S 3P renormalized
     file K.pbe-spn-kjpaw_psl.1.0.0.UPF: wavefunction(s)  3S renormalized

     IMPORTANT: XC functional enforced from input :
     Exchange-correlation= PBE
                           (   1   4   3   4   0   0   0)
     Any further DFT definition will be discarded
     Please, verify this is what you really want

     Message from routine setup:
     using ibrav=0 with symmetry is DISCOURAGED, use correct ibrav instead

     K-points division:     npool     =       4
     R & G space division:  proc/nbgrp/npool/nimage =      36
     Subspace diagonalization in iterative solution of the eigenvalue problem:
     a serial algorithm will be used

     Using Slab Decomposition

     bravais-lattice index     =            0
     lattice parameter (alat)  =      16.5693  a.u.
     unit-cell volume          =    2461.0457 (a.u.)^3
     number of atoms/cell      =           24
     number of atomic types    =            3
     number of electrons       =        64.00
     number of Kohn-Sham states=           38
     kinetic-energy cutoff     =      75.0000  Ry
     charge density cutoff     =     375.0000  Ry
     scf convergence threshold =      1.0E-08
     mixing beta               =       0.7000
     number of iterations used =            8  plain     mixing
     energy convergence thresh.=      1.0E-04
     force convergence thresh. =      1.0E-03
     Exchange-correlation= PBE
                           (   1   4   3   4   0   0   0)
     nstep                     =           50

     celldm(1)=  16.569251  celldm(2)=   0.000000  celldm(3)=   0.000000
     celldm(4)=   0.000000  celldm(5)=   0.000000  celldm(6)=   0.000000

     crystal axes: (cart. coord. in units of alat)
               a(1) = (   1.000000   0.000000   0.000000 )
               a(2) = (   0.000000   0.652381   0.000000 )
               a(3) = (   0.000000   0.000000   0.829296 )

     reciprocal axes: (cart. coord. in units 2 pi/alat)
               b(1) = (  1.000000  0.000000  0.000000 )
               b(2) = (  0.000000  1.532846  0.000000 )
               b(3) = (  0.000000  0.000000  1.205842 )

     PseudoPot. # 1 for Al read from file:
     /home/garima.iitr/.cache/.es/compmat/kalh4/Al.pbe-n-kjpaw_psl.1.0.0.UPF
     MD5 check sum: 502b6b27b9c6270cab5dd1084b96fa6d
     Pseudo is Projector augmented-wave + core cor, Zval =  3.0
     Generated using &quot;atomic&quot; code by A. Dal Corso  v.6.3
     Shape of augmentation charge: PSQ
     Using radial grid of 1135 points,  6 beta functions with:
                l(1) =   0
                l(2) =   0
                l(3) =   1
                l(4) =   1
                l(5) =   2
                l(6) =   2
     Q(r) pseudized with 0 coefficients

     PseudoPot. # 2 for H  read from file:
     /home/garima.iitr/.cache/.es/compmat/kalh4/H.pbe-rrkjus_psl.1.0.0.UPF
     MD5 check sum: 3f4114867bd07edc7f1424d066fc1888
     Pseudo is Ultrasoft, Zval =  1.0
     Generated using &quot;atomic&quot; code by A. Dal Corso  v.6.3MaX
     Using radial grid of  929 points,  2 beta functions with:
                l(1) =   0
                l(2) =   0
     Q(r) pseudized with 0 coefficients

     PseudoPot. # 3 for K  read from file:
     /home/garima.iitr/.cache/.es/compmat/kalh4/K.pbe-spn-kjpaw_psl.1.0.0.UPF
     MD5 check sum: 34cc42130a09071ebe376fd42eb21491
     Pseudo is Projector augmented-wave + core cor, Zval =  9.0
     Generated using &quot;atomic&quot; code by A. Dal Corso  v.6.2.2
     Shape of augmentation charge: PSQ
     Using radial grid of 1165 points,  6 beta functions with:
                l(1) =   0
                l(2) =   0
                l(3) =   1
                l(4) =   1
                l(5) =   2
                l(6) =   2
     Q(r) pseudized with 0 coefficients

     atomic species   valence    mass     pseudopotential
        Al             3.00    26.98100     Al( 1.00)
        H              1.00     1.00750     H ( 1.00)
        K              9.00    39.09830     K ( 1.00)

      8 Sym. Ops., with inversion, found ( 6 have fractional translation)

   Cartesian axes

     site n.     atom                  positions (alat units)
         1           K   tau(   1) = (   0.1764569   0.1630954   0.1371422  )
         2           K   tau(   2) = (   0.3235431   0.4892861   0.5517901  )
         3           K   tau(   3) = (   0.8235431   0.4892861   0.6921536  )
         4           K   tau(   4) = (   0.6764569   0.1630954   0.2775057  )
         5           Al  tau(   5) = (   0.0687938   0.1630954   0.5634634  )
         6           Al  tau(   6) = (   0.4312062   0.4892861   0.1488155  )
         7           Al  tau(   7) = (   0.9312062   0.4892861   0.2658324  )
         8           Al  tau(   8) = (   0.5687938   0.1630954   0.6804803  )
         9           H   tau(   9) = (   0.0778535   0.0134636   0.6723922  )
        10           H   tau(  10) = (   0.4221465   0.3396543   0.2577444  )
        11           H   tau(  11) = (   0.4221465   0.6389178   0.2577444  )
        12           H   tau(  12) = (   0.9221465   0.3396543   0.1569035  )
        13           H   tau(  13) = (   0.9221465   0.6389178   0.1569035  )
        14           H   tau(  14) = (   0.5778535   0.3127271   0.5715514  )
        15           H   tau(  15) = (   0.5778535   0.0134636   0.5715514  )
        16           H   tau(  16) = (   0.0778535   0.3127271   0.6723922  )
        17           H   tau(  17) = (   0.0900178   0.4892861   0.3598955  )
        18           H   tau(  18) = (   0.4099822   0.1630954   0.7745434  )
        19           H   tau(  19) = (   0.9099822   0.1630954   0.4694003  )
        20           H   tau(  20) = (   0.5900178   0.4892861   0.0547524  )
        21           H   tau(  21) = (   0.2159413   0.1630954   0.4514109  )
        22           H   tau(  22) = (   0.2840587   0.4892861   0.0367630  )
        23           H   tau(  23) = (   0.7840587   0.4892861   0.3778849  )
        24           H   tau(  24) = (   0.7159413   0.1630954   0.7925328  )

     number of k points=    36  Marzari-Vanderbilt smearing, width (Ry)=  0.0050
                       cart. coord. in units 2pi/alat
        k(    1) = (   0.0000000   0.0000000   0.0000000), wk =   0.0166667
        k(    2) = (   0.0000000   0.0000000   0.2411685), wk =   0.0333333
        k(    3) = (   0.0000000   0.0000000   0.4823369), wk =   0.0333333
        k(    4) = (   0.0000000   0.2554743   0.0000000), wk =   0.0333333
        k(    5) = (   0.0000000   0.2554743   0.2411685), wk =   0.0666667
        k(    6) = (   0.0000000   0.2554743   0.4823369), wk =   0.0666667
        k(    7) = (   0.0000000   0.5109485   0.0000000), wk =   0.0333333
        k(    8) = (   0.0000000   0.5109485   0.2411685), wk =   0.0666667
        k(    9) = (   0.0000000   0.5109485   0.4823369), wk =   0.0666667
        k(   10) = (   0.0000000  -0.7664228   0.0000000), wk =   0.0166667
        k(   11) = (   0.0000000  -0.7664228   0.2411685), wk =   0.0333333
        k(   12) = (   0.0000000  -0.7664228   0.4823369), wk =   0.0333333
        k(   13) = (   0.2500000   0.0000000   0.0000000), wk =   0.0333333
        k(   14) = (   0.2500000   0.0000000   0.2411685), wk =   0.0666667
        k(   15) = (   0.2500000   0.0000000   0.4823369), wk =   0.0666667
        k(   16) = (   0.2500000   0.2554743   0.0000000), wk =   0.0666667
        k(   17) = (   0.2500000   0.2554743   0.2411685), wk =   0.1333333
        k(   18) = (   0.2500000   0.2554743   0.4823369), wk =   0.1333333
        k(   19) = (   0.2500000   0.5109485   0.0000000), wk =   0.0666667
        k(   20) = (   0.2500000   0.5109485   0.2411685), wk =   0.1333333
        k(   21) = (   0.2500000   0.5109485   0.4823369), wk =   0.1333333
        k(   22) = (   0.2500000  -0.7664228   0.0000000), wk =   0.0333333
        k(   23) = (   0.2500000  -0.7664228   0.2411685), wk =   0.0666667
        k(   24) = (   0.2500000  -0.7664228   0.4823369), wk =   0.0666667
        k(   25) = (  -0.5000000   0.0000000   0.0000000), wk =   0.0166667
        k(   26) = (  -0.5000000   0.0000000   0.2411685), wk =   0.0333333
        k(   27) = (  -0.5000000   0.0000000   0.4823369), wk =   0.0333333
        k(   28) = (  -0.5000000   0.2554743   0.0000000), wk =   0.0333333
        k(   29) = (  -0.5000000   0.2554743   0.2411685), wk =   0.0666667
        k(   30) = (  -0.5000000   0.2554743   0.4823369), wk =   0.0666667
        k(   31) = (  -0.5000000   0.5109485   0.0000000), wk =   0.0333333
        k(   32) = (  -0.5000000   0.5109485   0.2411685), wk =   0.0666667
        k(   33) = (  -0.5000000   0.5109485   0.4823369), wk =   0.0666667
        k(   34) = (  -0.5000000  -0.7664228   0.0000000), wk =   0.0166667
        k(   35) = (  -0.5000000  -0.7664228   0.2411685), wk =   0.0333333
        k(   36) = (  -0.5000000  -0.7664228   0.4823369), wk =   0.0333333

     Check: negative core charge=   -0.000001

     Initial potential from superposition of free atoms

     starting charge      63.9154, renormalised to      64.0000
     Starting wfcs are   64 randomized atomic wfcs
     Checking if some PAW data can be deallocated...

     Self-consistent Calculation

     iteration #  1     ecut=    75.00 Ry     beta= 0.70
     Davidson diagonalization with overlap
     ethr =  1.00E-02,  avg # of iterations =  4.1

     total energy              =    -628.95202524 Ry
     estimated scf accuracy    <       1.27026741 Ry

[...]

     iteration #  4     ecut=    75.00 Ry     beta= 0.70
     Davidson diagonalization with overlap
     c_bands:  1 eigenvalues not converged
     c_bands:  1 eigenvalues not converged
     ethr =  1.14E-06,  avg # of iterations =  7.2

[...]

     End of self-consistent calculation

          k = 0.0000 0.0000 0.0000 ( 26965 PWs)   bands (ev):

   -28.3456 -28.3424 -28.3423 -28.3411 -11.8933 -11.8815 -11.8776 -11.8750
   -11.8744 -11.8561 -11.8479 -11.8466 -11.8330 -11.8243 -11.8183 -11.8053
    -5.3428  -4.5847  -4.2583  -4.0301  -1.8541  -1.8234  -1.2446  -1.2405
    -1.2281  -1.2041  -1.2020  -0.9070  -0.8250  -0.7553  -0.7375  -0.4934
     4.5766   5.0982   5.2569   5.3736   5.4326   5.5094

[...]

          k =-0.5000 0.0000 0.0000 ( 27002 PWs)   bands (ev):

[...]

     the Fermi energy is     2.5171 ev

!    total energy              =    -629.07323654 Ry
     estimated scf accuracy    <          5.9E-09 Ry
     smearing contrib. (-TS)   =       0.00000000 Ry
     internal energy E=F+TS    =    -629.07323654 Ry

     The total energy is F=E-TS. E is the sum of the following terms:
     one-electron contribution =    -109.51284982 Ry
     hartree contribution      =      71.33389145 Ry
     xc contribution           =     -66.61695250 Ry
     ewald contribution        =    -163.80231520 Ry
     one-center paw contrib.   =    -360.47501048 Ry

     convergence has been achieved in   7 iterations

     Forces acting on atoms (cartesian axes, Ry/au):

     atom    1 type  3   force =     0.00005891    0.00000000   -0.00015615
     atom    2 type  3   force =    -0.00005891    0.00000000   -0.00015615
     atom    3 type  3   force =    -0.00005891   -0.00000000    0.00015615
     atom    4 type  3   force =     0.00005891    0.00000000    0.00015615
     atom    5 type  1   force =    -0.00035223    0.00000000   -0.00158273
     atom    6 type  1   force =     0.00035223    0.00000000   -0.00158273
     atom    7 type  1   force =     0.00035223   -0.00000000    0.00158273
     atom    8 type  1   force =    -0.00035223    0.00000000    0.00158273
     atom    9 type  2   force =     0.00065601   -0.00385666    0.00345972
     atom   10 type  2   force =    -0.00065601   -0.00385666    0.00345972
     atom   11 type  2   force =    -0.00065601    0.00385666    0.00345972
     atom   12 type  2   force =    -0.00065601   -0.00385666   -0.00345972
     atom   13 type  2   force =    -0.00065601    0.00385666   -0.00345972
     atom   14 type  2   force =     0.00065601    0.00385666   -0.00345972
     atom   15 type  2   force =     0.00065601   -0.00385666   -0.00345972
     atom   16 type  2   force =     0.00065601    0.00385666    0.00345972
     atom   17 type  2   force =     0.00404833    0.00000000    0.00190472
     atom   18 type  2   force =    -0.00404833    0.00000000    0.00190472
     atom   19 type  2   force =    -0.00404833   -0.00000000   -0.00190472
     atom   20 type  2   force =     0.00404833    0.00000000   -0.00190472
     atom   21 type  2   force =     0.00380804   -0.00000000   -0.00311227
     atom   22 type  2   force =    -0.00380804    0.00000000   -0.00311227
     atom   23 type  2   force =    -0.00380804   -0.00000000    0.00311227
     atom   24 type  2   force =     0.00380804    0.00000000    0.00311227

     Total force =     0.020140     Total SCF correction =     0.000075

     Computing stress (Cartesian axis) and pressure

          total   stress  (Ry/bohr**3)                   (kbar)     P=        9.33
   0.00006270   0.00000000   0.00000000            9.22        0.00        0.00
   0.00000000   0.00006316   0.00000000            0.00        9.29        0.00
   0.00000000   0.00000000   0.00006437            0.00        0.00        9.47

     BFGS Geometry Optimization
     Energy error            =      0.0E+00 Ry
     Gradient error          =      4.0E-03 Ry/Bohr

     number of scf cycles    =   1
     number of bfgs steps    =   0

     energy             new  =    -629.0732365414 Ry

     new trust radius        =       0.0052224329 bohr
     new conv_thr            =       0.0000000100 Ry

ATOMIC_POSITIONS (crystal)
K             0.1764604756        0.2500000000        0.1653605161
K             0.3235395244        0.7500000000        0.6653605161
K             0.8235395244        0.7500000000        0.8346394839
K             0.6764604756        0.2500000000        0.3346394839
Al            0.0687725120        0.2500000000        0.6793328553
Al            0.4312274880        0.7500000000        0.1793328553
Al            0.9312274880        0.7500000000        0.3206671447
Al            0.5687725120        0.2500000000        0.8206671447
H             0.0778930921        0.0202808751        0.8110508442
H             0.4221069079        0.5202808751        0.3110508442
H             0.4221069079        0.9797191249        0.3110508442
H             0.9221069079        0.5202808751        0.1889491558
H             0.9221069079        0.9797191249        0.1889491558
H             0.5778930921        0.4797191249        0.6889491558
H             0.5778930921        0.0202808751        0.6889491558
H             0.0778930921        0.4797191249        0.8110508442
H             0.0902620877        0.7500000000        0.4341158381
H             0.4097379123        0.2500000000        0.9341158381
H             0.9097379123        0.2500000000        0.5658841619
H             0.5902620877        0.7500000000        0.0658841619
H             0.2161711159        0.2500000000        0.5441038817
H             0.2838288841        0.7500000000        0.0441038817
H             0.7838288841        0.7500000000        0.4558961183
H             0.7161711159        0.2500000000        0.9558961183

     Writing config-only to output data dir ./kalh4.save/
     NEW-OLD atomic charge density approx. for the potential

[...]

     Threshold (ethr) on eigenvalues was too large:
     Diagonalizing with lowered threshold

     Davidson diagonalization with overlap
     ethr =  3.88E-08,  avg # of iterations =  4.0

[...]

     Energy error            =      3.5E-04 Ry
     Gradient error          =      3.2E-03 Ry/Bohr

[...]

     energy             old  =    -629.0732365414 Ry
     energy             new  =    -629.0735898367 Ry

     CASE: energy            _new < energy            _old

[...]

     number of scf cycles    =   4
     number of bfgs steps    =   3

     energy             old  =    -629.0738651242 Ry
     energy             new  =    -629.0740465251 Ry

     CASE: energy            _new < energy            _old

     new trust radius        =       0.0021607549 bohr
     new conv_thr            =            1.0E-10 Ry

ATOMIC_POSITIONS (crystal)
K             0.1764602255        0.2500000000        0.1652784563
K             0.3235397745        0.7500000000        0.6652784563
K             0.8235397745        0.7500000000        0.8347215437
K             0.6764602255        0.2500000000        0.3347215437
Al            0.0687993182        0.2500000000        0.6791431807
Al            0.4312006818        0.7500000000        0.1791431807
Al            0.9312006818        0.7500000000        0.3208568193
Al            0.5687993182        0.2500000000        0.8208568193
H             0.0780832498        0.0193196199        0.8118385343
H             0.4219167502        0.5193196199        0.3118385343
H             0.4219167502        0.9806803801        0.3118385343
H             0.9219167502        0.5193196199        0.1881614657
H             0.9219167502        0.9806803801        0.1881614657
H             0.5780832498        0.4806803801        0.6881614657
H             0.5780832498        0.0193196199        0.6881614657
H             0.0780832498        0.4806803801        0.8118385343
H             0.0911078360        0.7500000000        0.4345192055
H             0.4088921640        0.2500000000        0.9345192055
H             0.9088921640        0.2500000000        0.5654807945
H             0.5911078360        0.7500000000        0.0654807945
H             0.2169189313        0.2500000000        0.5433093303
H             0.2830810687        0.7500000000        0.0433093303
H             0.7830810687        0.7500000000        0.4566906697
H             0.7169189313        0.2500000000        0.9566906697

     Writing config-only to output data dir ./kalh4.save/
     NEW-OLD atomic charge density approx. for the potential

     Check: negative core charge=   -0.000001

     Self-consistent Calculation

[...]

     Threshold (ethr) on eigenvalues was too large:
     Diagonalizing with lowered threshold

     Davidson diagonalization with overlap
     ethr =  5.28E-09,  avg # of iterations =  4.0

[...]

     total energy              =    -629.07405623 Ry
     estimated scf accuracy    <          6.2E-10 Ry

     iteration #  5     ecut=    75.00 Ry     beta= 0.70
     Davidson diagonalization with overlap
     ethr =  9.62E-13,  avg # of iterations =  4.0

     End of self-consistent calculation

[...]

          k = 0.2500-0.7664 0.4823 ( 26984 PWs)   bands (ev):

[...]

          k =-0.5000-0.7664 0.4823 ( 27008 PWs)   bands (ev):

   -28.3265 -28.3265 -28.3265 -28.3265 -11.8739 -11.8739 -11.8739 -11.8739
   -11.8336 -11.8336 -11.8336 -11.8336 -11.8137 -11.8137 -11.8137 -11.8137
    -4.4205  -4.4205  -4.4205  -4.4205  -1.9103  -1.9103  -1.9103  -1.9103
    -1.0849  -1.0849  -1.0849  -1.0849  -0.6644  -0.6644  -0.6644  -0.6644
     5.1911   5.1911   5.1911   5.1911   6.1506   6.1506

     the Fermi energy is     2.5137 ev

!    total energy              =    -629.07405623 Ry
     estimated scf accuracy    <          5.9E-11 Ry
     smearing contrib. (-TS)   =       0.00000000 Ry
     internal energy E=F+TS    =    -629.07405623 Ry

     The total energy is F=E-TS. E is the sum of the following terms:
     one-electron contribution =    -109.43257373 Ry
     hartree contribution      =      71.29544951 Ry
     xc contribution           =     -66.56892548 Ry
     ewald contribution        =    -163.90252852 Ry
     one-center paw contrib.   =    -360.46547800 Ry

     convergence has been achieved in   5 iterations

     Forces acting on atoms (cartesian axes, Ry/au):

     atom    1 type  3   force =    -0.00009186    0.00000000   -0.00017352
     atom    2 type  3   force =     0.00009186   -0.00000000   -0.00017352
     atom    3 type  3   force =     0.00009186    0.00000000    0.00017352
     atom    4 type  3   force =    -0.00009186    0.00000000    0.00017352
     atom    5 type  1   force =     0.00025668   -0.00000000    0.00014021
     atom    6 type  1   force =    -0.00025668    0.00000000    0.00014021
     atom    7 type  1   force =    -0.00025668    0.00000000   -0.00014021
     atom    8 type  1   force =     0.00025668    0.00000000   -0.00014021
     atom    9 type  2   force =     0.00037082    0.00033503    0.00013504
     atom   10 type  2   force =    -0.00037082    0.00033503    0.00013504
     atom   11 type  2   force =    -0.00037082   -0.00033503    0.00013504
     atom   12 type  2   force =    -0.00037082    0.00033503   -0.00013504
     atom   13 type  2   force =    -0.00037082   -0.00033503   -0.00013504
     atom   14 type  2   force =     0.00037082   -0.00033503   -0.00013504
     atom   15 type  2   force =     0.00037082    0.00033503   -0.00013504
     atom   16 type  2   force =     0.00037082   -0.00033503    0.00013504
     atom   17 type  2   force =     0.00009098   -0.00000000   -0.00035515
     atom   18 type  2   force =    -0.00009098    0.00000000   -0.00035515
     atom   19 type  2   force =    -0.00009098    0.00000000    0.00035515
     atom   20 type  2   force =     0.00009098    0.00000000    0.00035515
     atom   21 type  2   force =     0.00002246    0.00000000   -0.00025161
     atom   22 type  2   force =    -0.00002246   -0.00000000   -0.00025161
     atom   23 type  2   force =    -0.00002246   -0.00000000    0.00025161
     atom   24 type  2   force =     0.00002246    0.00000000    0.00025161

     Total force =     0.001853     Total SCF correction =     0.000013

     Computing stress (Cartesian axis) and pressure

          total   stress  (Ry/bohr**3)                   (kbar)     P=        5.06
   0.00003560   0.00000000   0.00000000            5.24        0.00        0.00
   0.00000000   0.00003249   0.00000000            0.00        4.78        0.00
   0.00000000   0.00000000   0.00003519            0.00        0.00        5.18

     Energy error            =      9.7E-06 Ry
     Gradient error          =      3.7E-04 Ry/Bohr

     bfgs converged in   5 scf cycles and   4 bfgs steps
     (criteria: energy <  1.0E-04 Ry, force <  1.0E-03 Ry/Bohr)

     End of BFGS Geometry Optimization

     Final energy             =    -629.0740562276 Ry

     File ./kalh4.bfgs deleted, as requested
Begin final coordinates

ATOMIC_POSITIONS (crystal)
K             0.1764602255        0.2500000000        0.1652784563
K             0.3235397745        0.7500000000        0.6652784563
K             0.8235397745        0.7500000000        0.8347215437
K             0.6764602255        0.2500000000        0.3347215437
Al            0.0687993182        0.2500000000        0.6791431807
Al            0.4312006818        0.7500000000        0.1791431807
Al            0.9312006818        0.7500000000        0.3208568193
Al            0.5687993182        0.2500000000        0.8208568193
H             0.0780832498        0.0193196199        0.8118385343
H             0.4219167502        0.5193196199        0.3118385343
H             0.4219167502        0.9806803801        0.3118385343
H             0.9219167502        0.5193196199        0.1881614657
H             0.9219167502        0.9806803801        0.1881614657
H             0.5780832498        0.4806803801        0.6881614657
H             0.5780832498        0.0193196199        0.6881614657
H             0.0780832498        0.4806803801        0.8118385343
H             0.0911078360        0.7500000000        0.4345192055
H             0.4088921640        0.2500000000        0.9345192055
H             0.9088921640        0.2500000000        0.5654807945
H             0.5911078360        0.7500000000        0.0654807945
H             0.2169189313        0.2500000000        0.5433093303
H             0.2830810687        0.7500000000        0.0433093303
H             0.7830810687        0.7500000000        0.4566906697
H             0.7169189313        0.2500000000        0.9566906697
End final coordinates

     Writing all to output data dir ./kalh4.save/

     General routines

     Parallel routines

   This run was terminated on:  17:19:24  27Nov2023

   JOB DONE.
Job execution finished at: Mon Nov 27 17:19:24 IST 2023