     Program PWSCF v.7.1 starts on 27Nov2023 at 19:37:27

     Reading input from kalh4.in

     Current dimensions of program PWSCF are:
     Max number of different atomic species (ntypx) = 10
     Max number of k-points (npk) =  40000
     Max angular momentum in pseudopotentials (lmaxx) =  4
     file Al.pbe-n-kjpaw_psl.1.0.0.UPF: wavefunction(s)  3S 3P renormalized
     file K.pbe-spn-kjpaw_psl.1.0.0.UPF: wavefunction(s)  3S renormalized

     IMPORTANT: XC functional enforced from input :
     Exchange-correlation= PBE
                           (   1   4   3   4   0   0   0)
     Any further DFT definition will be discarded
     Please, verify this is what you really want

     Message from routine setup:
     using ibrav=0 with symmetry is DISCOURAGED, use correct ibrav instead

     K-points division:     npool     =       4
     R & G space division:  proc/nbgrp/npool/nimage =      36
     Subspace diagonalization in iterative solution of the eigenvalue problem:
     a serial algorithm will be used

     Using Slab Decomposition

     bravais-lattice index     =            0
     lattice parameter (alat)  =      16.5693  a.u.
     unit-cell volume          =    2461.0457 (a.u.)^3
     number of atoms/cell      =           24
     number of atomic types    =            3
     number of electrons       =        64.00
     number of Kohn-Sham states=           38
     kinetic-energy cutoff     =      75.0000  Ry
     charge density cutoff     =     375.0000  Ry
     scf convergence threshold =      1.0E-08
     mixing beta               =       0.7000
     number of iterations used =            8  plain     mixing
     energy convergence thresh.=      1.0E-04
     force convergence thresh. =      1.0E-03
     press convergence thresh. =      5.0E-01
     Exchange-correlation= PBE
                           (   1   4   3   4   0   0   0)
     nstep                     =           50

     celldm(1)=  16.569251  celldm(2)=   0.000000  celldm(3)=   0.000000
     celldm(4)=   0.000000  celldm(5)=   0.000000  celldm(6)=   0.000000

     crystal axes: (cart. coord. in units of alat)
               a(1) = (   1.000000   0.000000   0.000000 )
               a(2) = (   0.000000   0.652381   0.000000 )
               a(3) = (   0.000000   0.000000   0.829296 )

     reciprocal axes: (cart. coord. in units 2 pi/alat)
               b(1) = (  1.000000  0.000000  0.000000 )
               b(2) = (  0.000000  1.532846  0.000000 )
               b(3) = (  0.000000  0.000000  1.205842 )

     PseudoPot. # 1 for Al read from file:
     /home/garima.iitr/.cache/.es/compmat/kalh4/Al.pbe-n-kjpaw_psl.1.0.0.UPF
     MD5 check sum: 502b6b27b9c6270cab5dd1084b96fa6d
     Pseudo is Projector augmented-wave + core cor, Zval =  3.0
     Generated using &quot;atomic&quot; code by A. Dal Corso  v.6.3
     Shape of augmentation charge: PSQ
     Using radial grid of 1135 points,  6 beta functions with:
                l(1) =   0
                l(2) =   0
                l(3) =   1
                l(4) =   1
                l(5) =   2
                l(6) =   2
     Q(r) pseudized with 0 coefficients

     PseudoPot. # 2 for H  read from file:
     /home/garima.iitr/.cache/.es/compmat/kalh4/H.pbe-rrkjus_psl.1.0.0.UPF
     MD5 check sum: 3f4114867bd07edc7f1424d066fc1888
     Pseudo is Ultrasoft, Zval =  1.0
     Generated using &quot;atomic&quot; code by A. Dal Corso  v.6.3MaX
     Using radial grid of  929 points,  2 beta functions with:
                l(1) =   0
                l(2) =   0
     Q(r) pseudized with 0 coefficients

     PseudoPot. # 3 for K  read from file:
     /home/garima.iitr/.cache/.es/compmat/kalh4/K.pbe-spn-kjpaw_psl.1.0.0.UPF
     MD5 check sum: 34cc42130a09071ebe376fd42eb21491
     Pseudo is Projector augmented-wave + core cor, Zval =  9.0
     Generated using &quot;atomic&quot; code by A. Dal Corso  v.6.2.2
     Shape of augmentation charge: PSQ
     Using radial grid of 1165 points,  6 beta functions with:
                l(1) =   0
                l(2) =   0
                l(3) =   1
                l(4) =   1
                l(5) =   2
                l(6) =   2
     Q(r) pseudized with 0 coefficients

     atomic species   valence    mass     pseudopotential
        Al             3.00    26.98100     Al( 1.00)
        H              1.00     1.00750     H ( 1.00)
        K              9.00    39.09830     K ( 1.00)

      8 Sym. Ops., with inversion, found ( 6 have fractional translation)

   Cartesian axes

     site n.     atom                  positions (alat units)
         1           K   tau(   1) = (   0.1764602   0.1630954   0.1370647  )
         2           K   tau(   2) = (   0.3235398   0.4892861   0.5517126  )
         3           K   tau(   3) = (   0.8235398   0.4892861   0.6922311  )
         4           K   tau(   4) = (   0.6764602   0.1630954   0.2775832  )
         5           Al  tau(   5) = (   0.0687993   0.1630954   0.5632106  )
         6           Al  tau(   6) = (   0.4312007   0.4892861   0.1485627  )
         7           Al  tau(   7) = (   0.9312007   0.4892861   0.2660852  )
         8           Al  tau(   8) = (   0.5687993   0.1630954   0.6807331  )
         9           H   tau(   9) = (   0.0780832   0.0126038   0.6732543  )
        10           H   tau(  10) = (   0.4219168   0.3387945   0.2586064  )
        11           H   tau(  11) = (   0.4219168   0.6397777   0.2586064  )
        12           H   tau(  12) = (   0.9219168   0.3387945   0.1560415  )
        13           H   tau(  13) = (   0.9219168   0.6397777   0.1560415  )
        14           H   tau(  14) = (   0.5780832   0.3135870   0.5706894  )
        15           H   tau(  15) = (   0.5780832   0.0126038   0.5706894  )
        16           H   tau(  16) = (   0.0780832   0.3135870   0.6732543  )
        17           H   tau(  17) = (   0.0911078   0.4892861   0.3603449  )
        18           H   tau(  18) = (   0.4088922   0.1630954   0.7749928  )
        19           H   tau(  19) = (   0.9088922   0.1630954   0.4689508  )
        20           H   tau(  20) = (   0.5911078   0.4892861   0.0543029  )
        21           H   tau(  21) = (   0.2169189   0.1630954   0.4505641  )
        22           H   tau(  22) = (   0.2830811   0.4892861   0.0359162  )
        23           H   tau(  23) = (   0.7830811   0.4892861   0.3787316  )
        24           H   tau(  24) = (   0.7169189   0.1630954   0.7933795  )

     number of k points=    36  Marzari-Vanderbilt smearing, width (Ry)=  0.0050
                       cart. coord. in units 2pi/alat
        k(    1) = (   0.0000000   0.0000000   0.0000000), wk =   0.0166667
        k(    2) = (   0.0000000   0.0000000   0.2411685), wk =   0.0333333
        k(    3) = (   0.0000000   0.0000000   0.4823369), wk =   0.0333333
        k(    4) = (   0.0000000   0.2554743   0.0000000), wk =   0.0333333
        k(    5) = (   0.0000000   0.2554743   0.2411685), wk =   0.0666667
        k(    6) = (   0.0000000   0.2554743   0.4823369), wk =   0.0666667
        k(    7) = (   0.0000000   0.5109485   0.0000000), wk =   0.0333333
        k(    8) = (   0.0000000   0.5109485   0.2411685), wk =   0.0666667
        k(    9) = (   0.0000000   0.5109485   0.4823369), wk =   0.0666667
        k(   10) = (   0.0000000  -0.7664228   0.0000000), wk =   0.0166667
        k(   11) = (   0.0000000  -0.7664228   0.2411685), wk =   0.0333333
        k(   12) = (   0.0000000  -0.7664228   0.4823369), wk =   0.0333333
        k(   13) = (   0.2500000   0.0000000   0.0000000), wk =   0.0333333
        k(   14) = (   0.2500000   0.0000000   0.2411685), wk =   0.0666667
        k(   15) = (   0.2500000   0.0000000   0.4823369), wk =   0.0666667
        k(   16) = (   0.2500000   0.2554743   0.0000000), wk =   0.0666667
        k(   17) = (   0.2500000   0.2554743   0.2411685), wk =   0.1333333
        k(   18) = (   0.2500000   0.2554743   0.4823369), wk =   0.1333333
        k(   19) = (   0.2500000   0.5109485   0.0000000), wk =   0.0666667
        k(   20) = (   0.2500000   0.5109485   0.2411685), wk =   0.1333333
        k(   21) = (   0.2500000   0.5109485   0.4823369), wk =   0.1333333
        k(   22) = (   0.2500000  -0.7664228   0.0000000), wk =   0.0333333
        k(   23) = (   0.2500000  -0.7664228   0.2411685), wk =   0.0666667
        k(   24) = (   0.2500000  -0.7664228   0.4823369), wk =   0.0666667
        k(   25) = (  -0.5000000   0.0000000   0.0000000), wk =   0.0166667
        k(   26) = (  -0.5000000   0.0000000   0.2411685), wk =   0.0333333
        k(   27) = (  -0.5000000   0.0000000   0.4823369), wk =   0.0333333
        k(   28) = (  -0.5000000   0.2554743   0.0000000), wk =   0.0333333
        k(   29) = (  -0.5000000   0.2554743   0.2411685), wk =   0.0666667
        k(   30) = (  -0.5000000   0.2554743   0.4823369), wk =   0.0666667
        k(   31) = (  -0.5000000   0.5109485   0.0000000), wk =   0.0333333
        k(   32) = (  -0.5000000   0.5109485   0.2411685), wk =   0.0666667
        k(   33) = (  -0.5000000   0.5109485   0.4823369), wk =   0.0666667
        k(   34) = (  -0.5000000  -0.7664228   0.0000000), wk =   0.0166667
        k(   35) = (  -0.5000000  -0.7664228   0.2411685), wk =   0.0333333
        k(   36) = (  -0.5000000  -0.7664228   0.4823369), wk =   0.0333333

     Check: negative core charge=   -0.000001

     Initial potential from superposition of free atoms

     starting charge      63.9154, renormalised to      64.0000
     Starting wfcs are   64 randomized atomic wfcs
     Checking if some PAW data can be deallocated...

     Self-consistent Calculation

     iteration #  1     ecut=    75.00 Ry     beta= 0.70
     Davidson diagonalization with overlap
     ethr =  1.00E-02,  avg # of iterations =  4.1

     total energy              =    -628.95501886 Ry
     estimated scf accuracy    <       1.24578905 Ry

[...]

     iteration #  3     ecut=    75.00 Ry     beta= 0.70
     Davidson diagonalization with overlap
     c_bands:  1 eigenvalues not converged
     ethr =  2.19E-05,  avg # of iterations = 13.0

[...]

     End of self-consistent calculation

          k = 0.0000 0.0000 0.0000 ( 26965 PWs)   bands (ev):

   -28.3294 -28.3261 -28.3261 -28.3249 -11.8784 -11.8664 -11.8624 -11.8602
   -11.8596 -11.8408 -11.8325 -11.8313 -11.8177 -11.8084 -11.8027 -11.7894
    -5.3244  -4.5565  -4.2241  -3.9979  -1.8551  -1.8253  -1.2402  -1.2380
    -1.2077  -1.1960  -1.1837  -0.9065  -0.7985  -0.7403  -0.7098  -0.4817
     4.5523   5.0850   5.2446   5.3735   5.4142   5.4815

[...]

          k =-0.5000 0.0000 0.0000 ( 27002 PWs)   bands (ev):

[...]

     the Fermi energy is     2.5135 ev

!    total energy              =    -629.07405622 Ry
     estimated scf accuracy    <          7.9E-09 Ry
     smearing contrib. (-TS)   =       0.00000000 Ry
     internal energy E=F+TS    =    -629.07405622 Ry

     The total energy is F=E-TS. E is the sum of the following terms:
     one-electron contribution =    -109.43253436 Ry
     hartree contribution      =      71.29540142 Ry
     xc contribution           =     -66.56892132 Ry
     ewald contribution        =    -163.90252853 Ry
[...]
H             0.9213859907        0.9775455619        0.1894910907
H             0.5786140093        0.4775455619        0.6894910907
H             0.5786140093        0.0224544381        0.6894910907
H             0.0786140093        0.4775455619        0.8105089093
H             0.0892051822        0.7500000000        0.4322668601
H             0.4107948178        0.2500000000        0.9322668601
H             0.9107948178        0.2500000000        0.5677331399
H             0.5892051822        0.7500000000        0.0677331399
H             0.2148508441        0.2500000000        0.5442829772
H             0.2851491559        0.7500000000        0.0442829772
H             0.7851491559        0.7500000000        0.4557170228
H             0.7148508441        0.2500000000        0.9557170228

     Writing config-only to output data dir ./kalh4.save/
     NEW-OLD atomic charge density approx. for the potential

     Check: negative core charge=   -0.000001
     extrapolated charge   63.90888, renormalised to   64.00000

[...]

     Threshold (ethr) on eigenvalues was too large:
     Diagonalizing with lowered threshold

     Davidson diagonalization with overlap
     ethr =  9.53E-08,  avg # of iterations =  1.0

[...]

     Energy error            =      1.7E-05 Ry
     Gradient error          =      4.0E-04 Ry/Bohr
     Cell gradient error     =      3.7E-01 kbar

     bfgs converged in  10 scf cycles and   9 bfgs steps
     (criteria: energy <  1.0E-04 Ry, force <  1.0E-03 Ry/Bohr, cell <  5.0E-01 kbar)

     End of BFGS Geometry Optimization

     Final enthalpy           =    -629.0758353108 Ry

     File ./kalh4.bfgs deleted, as requested
Begin final coordinates
     new unit-cell volume =   2568.04964 a.u.^3 (   380.54569 Ang^3 )
     density =      1.22371 g/cm^3

CELL_PARAMETERS (alat= 16.56925094)
   1.013712397   0.000000000   0.000000000
   0.000000000   0.661804274   0.000000000
   0.000000000   0.000000000   0.841492913

ATOMIC_POSITIONS (crystal)
K             0.1763947139        0.2500000000        0.1648805151
K             0.3236052861        0.7500000000        0.6648805151
K             0.8236052861        0.7500000000        0.8351194849
K             0.6763947139        0.2500000000        0.3351194849
Al            0.0691037597        0.2500000000        0.6792241097
Al            0.4308962403        0.7500000000        0.1792241097
Al            0.9308962403        0.7500000000        0.3207758903
Al            0.5691037597        0.2500000000        0.8207758903
H             0.0786140093        0.0224544381        0.8105089093
H             0.4213859907        0.5224544381        0.3105089093
H             0.4213859907        0.9775455619        0.3105089093
H             0.9213859907        0.5224544381        0.1894910907
H             0.9213859907        0.9775455619        0.1894910907
H             0.5786140093        0.4775455619        0.6894910907
H             0.5786140093        0.0224544381        0.6894910907
H             0.0786140093        0.4775455619        0.8105089093
H             0.0892051822        0.7500000000        0.4322668601
H             0.4107948178        0.2500000000        0.9322668601
H             0.9107948178        0.2500000000        0.5677331399
H             0.5892051822        0.7500000000        0.0677331399
H             0.2148508441        0.2500000000        0.5442829772
H             0.2851491559        0.7500000000        0.0442829772
H             0.7851491559        0.7500000000        0.4557170228
H             0.7148508441        0.2500000000        0.9557170228
End final coordinates

     Writing config-only to output data dir ./kalh4.save/

     Final scf calculation at the relaxed structure.
     The G-vectors are recalculated for the final unit cell
     Results may differ from those at the preceding step.

     Using Slab Decomposition

     bravais-lattice index     =            0
     lattice parameter (alat)  =      16.5693  a.u.
     unit-cell volume          =    2568.0496 (a.u.)^3
     number of atoms/cell      =           24
     number of atomic types    =            3
     number of electrons       =        64.00
     number of Kohn-Sham states=           38
     kinetic-energy cutoff     =      75.0000  Ry
     charge density cutoff     =     375.0000  Ry
     scf convergence threshold =      1.0E-10
     mixing beta               =       0.7000
     number of iterations used =            8  plain     mixing
     press convergence thresh. =      5.0E-01
     Exchange-correlation= PBE
                           (   1   4   3   4   0   0   0)

     celldm(1)=  16.569251  celldm(2)=   0.000000  celldm(3)=   0.000000
     celldm(4)=   0.000000  celldm(5)=   0.000000  celldm(6)=   0.000000

     crystal axes: (cart. coord. in units of alat)
               a(1) = (   1.013712   0.000000   0.000000 )
               a(2) = (   0.000000   0.661804   0.000000 )
               a(3) = (   0.000000   0.000000   0.841493 )

     reciprocal axes: (cart. coord. in units 2 pi/alat)
               b(1) = (  0.986473  0.000000  0.000000 )
               b(2) = (  0.000000  1.511021  0.000000 )
               b(3) = (  0.000000  0.000000  1.188364 )

     PseudoPot. # 1 for Al read from file:
     /home/garima.iitr/.cache/.es/compmat/kalh4/Al.pbe-n-kjpaw_psl.1.0.0.UPF
     MD5 check sum: 502b6b27b9c6270cab5dd1084b96fa6d
     Pseudo is Projector augmented-wave + core cor, Zval =  3.0
     Generated using &quot;atomic&quot; code by A. Dal Corso  v.6.3
     Shape of augmentation charge: PSQ
     Using radial grid of 1135 points,  6 beta functions with:
                l(1) =   0
                l(2) =   0
                l(3) =   1
                l(4) =   1
                l(5) =   2
                l(6) =   2
     Q(r) pseudized with 0 coefficients

     PseudoPot. # 2 for H  read from file:
     /home/garima.iitr/.cache/.es/compmat/kalh4/H.pbe-rrkjus_psl.1.0.0.UPF
     MD5 check sum: 3f4114867bd07edc7f1424d066fc1888
     Pseudo is Ultrasoft, Zval =  1.0
     Generated using &quot;atomic&quot; code by A. Dal Corso  v.6.3MaX
     Using radial grid of  929 points,  2 beta functions with:
                l(1) =   0
                l(2) =   0
     Q(r) pseudized with 0 coefficients

     PseudoPot. # 3 for K  read from file:
     /home/garima.iitr/.cache/.es/compmat/kalh4/K.pbe-spn-kjpaw_psl.1.0.0.UPF
     MD5 check sum: 34cc42130a09071ebe376fd42eb21491
     Pseudo is Projector augmented-wave + core cor, Zval =  9.0
     Generated using &quot;atomic&quot; code by A. Dal Corso  v.6.2.2
     Shape of augmentation charge: PSQ
     Using radial grid of 1165 points,  6 beta functions with:
                l(1) =   0
                l(2) =   0
                l(3) =   1
                l(4) =   1
                l(5) =   2
                l(6) =   2
     Q(r) pseudized with 0 coefficients

     atomic species   valence    mass     pseudopotential
        Al             3.00    26.98100     Al( 1.00)
        H              1.00     1.00750     H ( 1.00)
        K              9.00    39.09830     K ( 1.00)

      8 Sym. Ops., with inversion, found ( 6 have fractional translation)

   Cartesian axes

     site n.     atom                  positions (alat units)
         1           K   tau(   1) = (   0.1788135   0.1654511   0.1387458  )
         2           K   tau(   2) = (   0.3280427   0.4963532   0.5594922  )
         3           K   tau(   3) = (   0.8348989   0.4963532   0.7027471  )
         4           K   tau(   4) = (   0.6856697   0.1654511   0.2820007  )
         5           Al  tau(   5) = (   0.0700513   0.1654511   0.5715623  )
         6           Al  tau(   6) = (   0.4368049   0.4963532   0.1508158  )
         7           Al  tau(   7) = (   0.9436611   0.4963532   0.2699306  )
         8           Al  tau(   8) = (   0.5769075   0.1654511   0.6906771  )
         9           H   tau(   9) = (   0.0796920   0.0148604   0.6820375  )
        10           H   tau(  10) = (   0.4271642   0.3457626   0.2612910  )
        11           H   tau(  11) = (   0.4271642   0.6469438   0.2612910  )
        12           H   tau(  12) = (   0.9340204   0.3457626   0.1594554  )
        13           H   tau(  13) = (   0.9340204   0.6469438   0.1594554  )
        14           H   tau(  14) = (   0.5865482   0.3160417   0.5802019  )
        15           H   tau(  15) = (   0.5865482   0.0148604   0.5802019  )
        16           H   tau(  16) = (   0.0796920   0.3160417   0.6820375  )
        17           H   tau(  17) = (   0.0904284   0.4963532   0.3637495  )
        18           H   tau(  18) = (   0.4164278   0.1654511   0.7844960  )
        19           H   tau(  19) = (   0.9232840   0.1654511   0.4777434  )
        20           H   tau(  20) = (   0.5972846   0.4963532   0.0569970  )
        21           H   tau(  21) = (   0.2177970   0.1654511   0.4580103  )
        22           H   tau(  22) = (   0.2890592   0.4963532   0.0372638  )
        23           H   tau(  23) = (   0.7959154   0.4963532   0.3834826  )
        24           H   tau(  24) = (   0.7246532   0.1654511   0.8042291  )

     number of k points=    36  Marzari-Vanderbilt smearing, width (Ry)=  0.0050
                       cart. coord. in units 2pi/alat
        k(    1) = (   0.0000000   0.0000000   0.0000000), wk =   0.0166667
        k(    2) = (   0.0000000   0.0000000   0.2376728), wk =   0.0333333
        k(    3) = (   0.0000000   0.0000000   0.4753457), wk =   0.0333333
        k(    4) = (   0.0000000   0.2518368   0.0000000), wk =   0.0333333
        k(    5) = (   0.0000000   0.2518368   0.2376728), wk =   0.0666667
        k(    6) = (   0.0000000   0.2518368   0.4753457), wk =   0.0666667
        k(    7) = (   0.0000000   0.5036736   0.0000000), wk =   0.0333333
        k(    8) = (   0.0000000   0.5036736   0.2376728), wk =   0.0666667
        k(    9) = (   0.0000000   0.5036736   0.4753457), wk =   0.0666667
        k(   10) = (   0.0000000  -0.7555104   0.0000000), wk =   0.0166667
        k(   11) = (   0.0000000  -0.7555104   0.2376728), wk =   0.0333333
        k(   12) = (   0.0000000  -0.7555104   0.4753457), wk =   0.0333333
        k(   13) = (   0.2466183   0.0000000   0.0000000), wk =   0.0333333
        k(   14) = (   0.2466183   0.0000000   0.2376728), wk =   0.0666667
        k(   15) = (   0.2466183   0.0000000   0.4753457), wk =   0.0666667
        k(   16) = (   0.2466183   0.2518368   0.0000000), wk =   0.0666667
        k(   17) = (   0.2466183   0.2518368   0.2376728), wk =   0.1333333
        k(   18) = (   0.2466183   0.2518368   0.4753457), wk =   0.1333333
        k(   19) = (   0.2466183   0.5036736   0.0000000), wk =   0.0666667
        k(   20) = (   0.2466183   0.5036736   0.2376728), wk =   0.1333333
        k(   21) = (   0.2466183   0.5036736   0.4753457), wk =   0.1333333
        k(   22) = (   0.2466183  -0.7555104   0.0000000), wk =   0.0333333
        k(   23) = (   0.2466183  -0.7555104   0.2376728), wk =   0.0666667
        k(   24) = (   0.2466183  -0.7555104   0.4753457), wk =   0.0666667
        k(   25) = (  -0.4932365   0.0000000   0.0000000), wk =   0.0166667
        k(   26) = (  -0.4932365   0.0000000   0.2376728), wk =   0.0333333
        k(   27) = (  -0.4932365   0.0000000   0.4753457), wk =   0.0333333
        k(   28) = (  -0.4932365   0.2518368   0.0000000), wk =   0.0333333
        k(   29) = (  -0.4932365   0.2518368   0.2376728), wk =   0.0666667
        k(   30) = (  -0.4932365   0.2518368   0.4753457), wk =   0.0666667
        k(   31) = (  -0.4932365   0.5036736   0.0000000), wk =   0.0333333
        k(   32) = (  -0.4932365   0.5036736   0.2376728), wk =   0.0666667
        k(   33) = (  -0.4932365   0.5036736   0.4753457), wk =   0.0666667
        k(   34) = (  -0.4932365  -0.7555104   0.0000000), wk =   0.0166667
        k(   35) = (  -0.4932365  -0.7555104   0.2376728), wk =   0.0333333
        k(   36) = (  -0.4932365  -0.7555104   0.4753457), wk =   0.0333333

     Initial potential from superposition of free atoms

     starting charge      63.9154, renormalised to      64.0000
     Starting wfcs are   64 randomized atomic wfcs
     Checking if some PAW data can be deallocated...

     Self-consistent Calculation

     iteration #  1     ecut=    75.00 Ry     beta= 0.70
     Davidson diagonalization with overlap
     c_bands:  2 eigenvalues not converged
     c_bands:  2 eigenvalues not converged
     c_bands:  2 eigenvalues not converged
     c_bands:  1 eigenvalues not converged
     c_bands:  2 eigenvalues not converged
     c_bands:  2 eigenvalues not converged
     c_bands:  3 eigenvalues not converged
     c_bands:  2 eigenvalues not converged
     c_bands:  3 eigenvalues not converged
     ethr =  1.00E-06,  avg # of iterations = 20.3

[...]

     total energy              =    -629.07593479 Ry
     estimated scf accuracy    <          1.2E-10 Ry

     iteration #  9     ecut=    75.00 Ry     beta= 0.70
     Davidson diagonalization with overlap
     ethr =  1.80E-13,  avg # of iterations =  5.0

     End of self-consistent calculation

[...]

          k = 0.2466-0.7555 0.4753 ( 28192 PWs)   bands (ev):

[...]

          k =-0.4932-0.7555 0.4753 ( 28180 PWs)   bands (ev):

   -28.6490 -28.6490 -28.6490 -28.6490 -12.1805 -12.1805 -12.1805 -12.1805
   -12.1463 -12.1463 -12.1463 -12.1463 -12.1304 -12.1304 -12.1304 -12.1304
    -4.6071  -4.6071  -4.6071  -4.6071  -2.0520  -2.0520  -2.0520  -2.0520
    -1.2766  -1.2766  -1.2766  -1.2766  -0.8906  -0.8906  -0.8906  -0.8906
     4.9788   4.9788   4.9788   4.9788   5.8626   5.8626

     the Fermi energy is     2.2249 ev

!    total energy              =    -629.07593479 Ry
     estimated scf accuracy    <          7.0E-12 Ry
     smearing contrib. (-TS)   =       0.00000000 Ry
     internal energy E=F+TS    =    -629.07593479 Ry

     The total energy is F=E-TS. E is the sum of the following terms:
     one-electron contribution =    -113.29455427 Ry
     hartree contribution      =      72.58080062 Ry
     xc contribution           =     -66.49117234 Ry
     ewald contribution        =    -161.40975089 Ry
     one-center paw contrib.   =    -360.46125791 Ry

     convergence has been achieved in   9 iterations

     Forces acting on atoms (cartesian axes, Ry/au):

     atom    1 type  3   force =     0.00014613   -0.00000000   -0.00013703
     atom    2 type  3   force =    -0.00014613    0.00000000   -0.00013703
     atom    3 type  3   force =    -0.00014613   -0.00000000    0.00013703
     atom    4 type  3   force =     0.00014613    0.00000000    0.00013703
     atom    5 type  1   force =    -0.00006357    0.00000000    0.00007623
     atom    6 type  1   force =     0.00006357    0.00000000    0.00007623
     atom    7 type  1   force =     0.00006357    0.00000000   -0.00007623
     atom    8 type  1   force =    -0.00006357    0.00000000   -0.00007623
     atom    9 type  2   force =     0.00013816   -0.00006531   -0.00011189
     atom   10 type  2   force =    -0.00013816   -0.00006531   -0.00011189
     atom   11 type  2   force =    -0.00013816    0.00006531   -0.00011189
     atom   12 type  2   force =    -0.00013816   -0.00006531    0.00011189
     atom   13 type  2   force =    -0.00013816    0.00006531    0.00011189
     atom   14 type  2   force =     0.00013816    0.00006531    0.00011189
     atom   15 type  2   force =     0.00013816   -0.00006531    0.00011189
     atom   16 type  2   force =     0.00013816    0.00006531   -0.00011189
     atom   17 type  2   force =     0.00025336    0.00000000   -0.00016370
     atom   18 type  2   force =    -0.00025336    0.00000000   -0.00016370
     atom   19 type  2   force =    -0.00025336    0.00000000    0.00016370
     atom   20 type  2   force =     0.00025336    0.00000000    0.00016370
     atom   21 type  2   force =    -0.00030123    0.00000000   -0.00040197
     atom   22 type  2   force =     0.00030123    0.00000000   -0.00040197
     atom   23 type  2   force =     0.00030123    0.00000000    0.00040197
     atom   24 type  2   force =    -0.00030123   -0.00000000    0.00040197

     Total force =     0.001364     Total SCF correction =     0.000002

     Computing stress (Cartesian axis) and pressure

          total   stress  (Ry/bohr**3)                   (kbar)     P=       -0.17
  -0.00000259   0.00000000   0.00000000           -0.38        0.00        0.00
   0.00000000   0.00000095   0.00000000            0.00        0.14        0.00
   0.00000000   0.00000000  -0.00000180            0.00        0.00       -0.26

     Writing all to output data dir ./kalh4.save/

     General routines

     Parallel routines

   This run was terminated on:  19:39:13  27Nov2023

   JOB DONE.
Job execution finished at: Mon Nov 27 19:39:14 IST 2023