     Program PWSCF v.7.1 starts on  1Dec2023 at  9:19:11

     Reading input from bh3.in

     Current dimensions of program PWSCF are:
     Max number of different atomic species (ntypx) = 10
     Max number of k-points (npk) =  40000
     Max angular momentum in pseudopotentials (lmaxx) =  4

     IMPORTANT: XC functional enforced from input :
     Exchange-correlation= PBE
                           (   1   4   3   4   0   0   0)
     Any further DFT definition will be discarded
     Please, verify this is what you really want

     Message from routine setup:
     using ibrav=0 with symmetry is DISCOURAGED, use correct ibrav instead

     K-points division:     npool     =       4
     R & G space division:  proc/nbgrp/npool/nimage =      36
     Subspace diagonalization in iterative solution of the eigenvalue problem:
     a serial algorithm will be used

     Using Slab Decomposition

     bravais-lattice index     =            0
     lattice parameter (alat)  =       8.1081  a.u.
     unit-cell volume          =     992.9145 (a.u.)^3
     number of atoms/cell      =           16
     number of atomic types    =            2
     number of electrons       =        24.00
     number of Kohn-Sham states=           16
     kinetic-energy cutoff     =      75.0000  Ry
     charge density cutoff     =     375.0000  Ry
     scf convergence threshold =      1.0E-08
     mixing beta               =       0.7000
     number of iterations used =            8  plain     mixing
     energy convergence thresh.=      1.0E-04
     force convergence thresh. =      1.0E-03
     Exchange-correlation= PBE
                           (   1   4   3   4   0   0   0)
     nstep                     =           50

     celldm(1)=   8.108059  celldm(2)=   0.000000  celldm(3)=   0.000000
     celldm(4)=   0.000000  celldm(5)=   0.000000  celldm(6)=   0.000000

     crystal axes: (cart. coord. in units of alat)
               a(1) = (   1.000000   0.000000   0.000000 )
               a(2) = (   0.000000   1.442472   0.000000 )
               a(3) = (  -0.644894   0.000000   1.291379 )

     reciprocal axes: (cart. coord. in units 2 pi/alat)
               b(1) = (  1.000000  0.000000  0.499384 )
               b(2) = (  0.000000  0.693254  0.000000 )
               b(3) = (  0.000000  0.000000  0.774366 )

     PseudoPot. # 1 for B  read from file:
     /home/garima.iitr/.cache/.es/compmat/bh3/b_pbe_v1.4.uspp.F.UPF
     MD5 check sum: cc6de2960df11db49a60e589f9ebb39b
     Pseudo is Ultrasoft + core correction, Zval =  3.0
     Generated by new atomic code, or converted to UPF format
     Using radial grid of  781 points,  4 beta functions with:
                l(1) =   0
                l(2) =   0
                l(3) =   1
                l(4) =   1
     Q(r) pseudized with  8 coefficients,  rinner =    1.100   1.100   1.100

     PseudoPot. # 2 for H  read from file:
     /home/garima.iitr/.cache/.es/compmat/bh3/H.pbe-rrkjus_psl.1.0.0.UPF
     MD5 check sum: 3f4114867bd07edc7f1424d066fc1888
     Pseudo is Ultrasoft, Zval =  1.0
     Generated using &quot;atomic&quot; code by A. Dal Corso  v.6.3MaX
     Using radial grid of  929 points,  2 beta functions with:
                l(1) =   0
                l(2) =   0
     Q(r) pseudized with 0 coefficients

     atomic species   valence    mass     pseudopotential
        B              3.00    10.81350     B ( 1.00)
        H              1.00     1.00750     H ( 1.00)

      4 Sym. Ops., with inversion, found ( 2 have fractional translation)

   Cartesian axes

     site n.     atom                  positions (alat units)
         1           B   tau(   1) = (  -0.2732280   0.7844302   0.8324538  )
         2           B   tau(   2) = (   0.6283342   0.6580415   0.4589256  )
         3           B   tau(   3) = (   0.3058873   0.0631944   1.1046154  )
         4           B   tau(   4) = (   0.0492189   1.3792774   0.1867641  )
         5           H   tau(   5) = (  -0.1123443   0.0068599   0.4008051  )
         6           H   tau(   6) = (   0.4674505   1.4356118   0.8905744  )
         7           H   tau(   7) = (   0.7898974   0.7280958   0.2448847  )
         8           H   tau(   8) = (  -0.4347912   0.7143759   1.0464948  )
         9           H   tau(   9) = (   0.1256089   0.1895213   0.0310581  )
        10           H   tau(  10) = (   0.2294973   1.2529504   1.2603213  )
        11           H   tau(  11) = (   0.5519442   0.9107572   0.6146316  )
        12           H   tau(  12) = (  -0.1968380   0.5317145   0.6767478  )
        13           H   tau(  13) = (  -0.0461572   0.9393059   0.8669348  )
        14           H   tau(  14) = (   0.4012634   0.5031658   0.4244446  )
        15           H   tau(  15) = (   0.0788165   0.2180701   1.0701343  )
        16           H   tau(  16) = (   0.2762897   1.2244016   0.2212451  )

     number of k points=    48  Marzari-Vanderbilt smearing, width (Ry)=  0.0050
                       cart. coord. in units 2pi/alat
        k(    1) = (   0.0000000   0.0000000   0.0000000), wk =   0.0133333
        k(    2) = (   0.0000000   0.0000000   0.1548731), wk =   0.0266667
        k(    3) = (   0.0000000   0.0000000   0.3097463), wk =   0.0266667
        k(    4) = (   0.0000000   0.1386509   0.0000000), wk =   0.0266667
        k(    5) = (   0.0000000   0.1386509   0.1548731), wk =   0.0533333
        k(    6) = (   0.0000000   0.1386509   0.3097463), wk =   0.0533333
        k(    7) = (   0.0000000   0.2773018   0.0000000), wk =   0.0266667
        k(    8) = (   0.0000000   0.2773018   0.1548731), wk =   0.0533333
        k(    9) = (   0.0000000   0.2773018   0.3097463), wk =   0.0533333
        k(   10) = (   0.1666667   0.0000000   0.0832306), wk =   0.0266667
        k(   11) = (   0.1666667   0.0000000   0.2381038), wk =   0.0266667
        k(   12) = (   0.1666667   0.0000000   0.3929769), wk =   0.0266667
        k(   13) = (   0.1666667   0.0000000  -0.2265157), wk =   0.0266667
        k(   14) = (   0.1666667   0.0000000  -0.0716425), wk =   0.0266667
        k(   15) = (   0.1666667   0.1386509   0.0832306), wk =   0.0533333
        k(   16) = (   0.1666667   0.1386509   0.2381038), wk =   0.0533333
        k(   17) = (   0.1666667   0.1386509   0.3929769), wk =   0.0533333
        k(   18) = (   0.1666667   0.1386509  -0.2265157), wk =   0.0533333
        k(   19) = (   0.1666667   0.1386509  -0.0716425), wk =   0.0533333
        k(   20) = (   0.1666667   0.2773018   0.0832306), wk =   0.0533333
        k(   21) = (   0.1666667   0.2773018   0.2381038), wk =   0.0533333
        k(   22) = (   0.1666667   0.2773018   0.3929769), wk =   0.0533333
        k(   23) = (   0.1666667   0.2773018  -0.2265157), wk =   0.0533333
        k(   24) = (   0.1666667   0.2773018  -0.0716425), wk =   0.0533333
        k(   25) = (   0.3333333   0.0000000   0.1664612), wk =   0.0266667
        k(   26) = (   0.3333333   0.0000000   0.3213344), wk =   0.0266667
        k(   27) = (   0.3333333   0.0000000   0.4762075), wk =   0.0266667
        k(   28) = (   0.3333333   0.0000000  -0.1432851), wk =   0.0266667
        k(   29) = (   0.3333333   0.0000000   0.0115881), wk =   0.0266667
        k(   30) = (   0.3333333   0.1386509   0.1664612), wk =   0.0533333
        k(   31) = (   0.3333333   0.1386509   0.3213344), wk =   0.0533333
        k(   32) = (   0.3333333   0.1386509   0.4762075), wk =   0.0533333
        k(   33) = (   0.3333333   0.1386509  -0.1432851), wk =   0.0533333
        k(   34) = (   0.3333333   0.1386509   0.0115881), wk =   0.0533333
        k(   35) = (   0.3333333   0.2773018   0.1664612), wk =   0.0533333
        k(   36) = (   0.3333333   0.2773018   0.3213344), wk =   0.0533333
        k(   37) = (   0.3333333   0.2773018   0.4762075), wk =   0.0533333
        k(   38) = (   0.3333333   0.2773018  -0.1432851), wk =   0.0533333
        k(   39) = (   0.3333333   0.2773018   0.0115881), wk =   0.0533333
        k(   40) = (  -0.5000000   0.0000000  -0.2496918), wk =   0.0133333
        k(   41) = (  -0.5000000   0.0000000  -0.0948187), wk =   0.0266667
        k(   42) = (  -0.5000000   0.0000000   0.0600545), wk =   0.0266667
        k(   43) = (  -0.5000000   0.1386509  -0.2496918), wk =   0.0266667
        k(   44) = (  -0.5000000   0.1386509  -0.0948187), wk =   0.0533333
        k(   45) = (  -0.5000000   0.1386509   0.0600545), wk =   0.0533333
        k(   46) = (  -0.5000000   0.2773018  -0.2496918), wk =   0.0266667
        k(   47) = (  -0.5000000   0.2773018  -0.0948187), wk =   0.0533333
        k(   48) = (  -0.5000000   0.2773018   0.0600545), wk =   0.0533333

     Initial potential from superposition of free atoms

     starting charge      23.9988, renormalised to      24.0000
     Starting wfcs are   28 randomized atomic wfcs

     Self-consistent Calculation

     iteration #  1     ecut=    75.00 Ry     beta= 0.70
     Davidson diagonalization with overlap
     ethr =  1.00E-02,  avg # of iterations =  3.0

     total energy              =     -39.46152845 Ry
     estimated scf accuracy    <       1.11605029 Ry

[...]

     End of self-consistent calculation

          k = 0.0000 0.0000 0.0000 ( 10845 PWs)   bands (ev):

   -12.6184 -12.1657  -7.1633  -6.9808  -6.3231  -6.1098  -5.3614  -5.0122
    -4.8847  -4.7447  -3.6863  -3.3323   2.0310   3.1241   4.6898   4.8090

[...]

          k =-0.5000 0.0000-0.2497 ( 10874 PWs)   bands (ev):

[...]

     the Fermi energy is     1.1465 ev

!    total energy              =     -39.61381030 Ry
     estimated scf accuracy    <          1.2E-09 Ry
     smearing contrib. (-TS)   =      -0.00000000 Ry
     internal energy E=F+TS    =     -39.61381030 Ry

     The total energy is F=E-TS. E is the sum of the following terms:
     one-electron contribution =     -16.34402499 Ry
     hartree contribution      =      13.57333032 Ry
     xc contribution           =     -20.26299651 Ry
     ewald contribution        =     -16.58011913 Ry

     convergence has been achieved in   7 iterations

     Forces acting on atoms (cartesian axes, Ry/au):

     atom    1 type  1   force =    -0.00131910   -0.00174582   -0.00450804
     atom    2 type  1   force =     0.00131910    0.00174582    0.00450804
     atom    3 type  1   force =     0.00131910   -0.00174582    0.00450804
     atom    4 type  1   force =    -0.00131910    0.00174582   -0.00450804
     atom    5 type  2   force =    -0.00181213    0.00111755    0.00325779
     atom    6 type  2   force =     0.00181213   -0.00111755   -0.00325779
     atom    7 type  2   force =     0.00181213    0.00111755   -0.00325779
     atom    8 type  2   force =    -0.00181213   -0.00111755    0.00325779
     atom    9 type  2   force =     0.00137298    0.00250031    0.00040832
     atom   10 type  2   force =    -0.00137298   -0.00250031   -0.00040832
     atom   11 type  2   force =    -0.00137298    0.00250031   -0.00040832
     atom   12 type  2   force =     0.00137298   -0.00250031    0.00040832
     atom   13 type  2   force =     0.00297903    0.00228801    0.00073818
     atom   14 type  2   force =    -0.00297903   -0.00228801   -0.00073818
     atom   15 type  2   force =    -0.00297903    0.00228801   -0.00073818
     atom   16 type  2   force =     0.00297903   -0.00228801    0.00073818

     Total force =     0.015901     Total SCF correction =     0.000011

     Computing stress (Cartesian axis) and pressure

          total   stress  (Ry/bohr**3)                   (kbar)     P=       13.48
   0.00010198   0.00000000  -0.00001245           15.00        0.00       -1.83
   0.00000000   0.00009418   0.00000000            0.00       13.85        0.00
  -0.00001245   0.00000000   0.00007879           -1.83        0.00       11.59

     BFGS Geometry Optimization
     Energy error            =      0.0E+00 Ry
     Gradient error          =      4.5E-03 Ry/Bohr

     number of scf cycles    =   1
     number of bfgs steps    =   0

     energy             new  =     -39.6138103046 Ry

     new trust radius        =       0.0050110229 bohr
     new conv_thr            =       0.0000000100 Ry

ATOMIC_POSITIONS (crystal)
B             0.1420454652        0.5436604991        0.6441931664
B             0.8579545348        0.4563395009        0.3558068336
B             0.8579545348        0.0436604991        0.8558068336
B             0.1420454652        0.9563395009        0.1441931664
H             0.0877883625        0.0048512426        0.3106808472
H             0.9122116375        0.9951487574        0.6893191528
H             0.9122116375        0.5048512426        0.1893191528
H             0.0877883625        0.4951487574        0.8106808472
H             0.1413132647        0.1316002910        0.0240893269
H             0.8586867353        0.8683997090        0.9759106731
H             0.8586867353        0.6316002910        0.4759106731
H             0.1413132647        0.3683997090        0.5240893269
H             0.3871887810        0.6513736794        0.6713951301
H             0.6128112190        0.3486263206        0.3286048699
H             0.6128112190        0.1513736794        0.8286048699
H             0.3871887810        0.8486263206        0.1713951301

     Writing config-only to output data dir ./bh3.save/
     NEW-OLD atomic charge density approx. for the potential

[...]

     Threshold (ethr) on eigenvalues was too large:
     Diagonalizing with lowered threshold

     Davidson diagonalization with overlap
     ethr =  9.36E-08,  avg # of iterations =  1.8

[...]

     Energy error            =      1.5E-04 Ry
     Gradient error          =      2.2E-03 Ry/Bohr

[...]

     energy             old  =     -39.6138103046 Ry
     energy             new  =     -39.6139580285 Ry

     CASE: energy            _new < energy            _old

[...]

     number of scf cycles    =   3
     number of bfgs steps    =   2

     energy             old  =     -39.6139580285 Ry
     energy             new  =     -39.6139932023 Ry

     CASE: energy            _new < energy            _old

     new trust radius        =       0.0033979029 bohr
     new conv_thr            =            1.0E-10 Ry

ATOMIC_POSITIONS (crystal)
B             0.1421475330        0.5436581385        0.6443004729
B             0.8578524670        0.4563418615        0.3556995271
B             0.8578524670        0.0436581385        0.8556995271
B             0.1421475330        0.9563418615        0.1443004729
H             0.0878937199        0.0049810536        0.3109590124
H             0.9121062801        0.9950189464        0.6890409876
H             0.9121062801        0.5049810536        0.1890409876
H             0.0878937199        0.4950189464        0.8109590124
H             0.1417569354        0.1321189147        0.0241757751
H             0.8582430646        0.8678810853        0.9758242249
H             0.8582430646        0.6321189147        0.4758242249
H             0.1417569354        0.3678810853        0.5241757751
H             0.3874343926        0.6515319688        0.6714651309
H             0.6125656074        0.3484680312        0.3285348691
H             0.6125656074        0.1515319688        0.8285348691
H             0.3874343926        0.8484680312        0.1714651309

     Writing config-only to output data dir ./bh3.save/
     NEW-OLD atomic charge density approx. for the potential

     Self-consistent Calculation

[...]

     Threshold (ethr) on eigenvalues was too large:
     Diagonalizing with lowered threshold

     Davidson diagonalization with overlap
     ethr =  2.93E-08,  avg # of iterations =  1.2

[...]

     total energy              =     -39.61400683 Ry
     estimated scf accuracy    <          1.4E-10 Ry

     iteration #  6     ecut=    75.00 Ry     beta= 0.70
     Davidson diagonalization with overlap
     ethr =  6.01E-13,  avg # of iterations =  2.0

     End of self-consistent calculation

[...]

          k = 0.3333 0.2773 0.0116 ( 10902 PWs)   bands (ev):

[...]

          k =-0.5000 0.2773 0.0601 ( 10910 PWs)   bands (ev):

   -12.2347 -12.2169  -6.8566  -6.8349  -6.7244  -6.6747  -5.2579  -5.1985
    -4.8842  -4.8309  -3.6262  -3.5970   2.2875   2.3398   4.3616   4.5416

     the Fermi energy is     1.1239 ev

!    total energy              =     -39.61400683 Ry
     estimated scf accuracy    <          8.4E-11 Ry
     smearing contrib. (-TS)   =      -0.00000000 Ry
     internal energy E=F+TS    =     -39.61400683 Ry

     The total energy is F=E-TS. E is the sum of the following terms:
     one-electron contribution =     -16.18985840 Ry
     hartree contribution      =      13.49575547 Ry
     xc contribution           =     -20.24075906 Ry
     ewald contribution        =     -16.67914485 Ry

     convergence has been achieved in   6 iterations

     Forces acting on atoms (cartesian axes, Ry/au):

     atom    1 type  1   force =     0.00005733   -0.00001846    0.00019133
     atom    2 type  1   force =    -0.00005733    0.00001846   -0.00019133
     atom    3 type  1   force =    -0.00005733   -0.00001846   -0.00019133
     atom    4 type  1   force =     0.00005733    0.00001846    0.00019133
     atom    5 type  2   force =     0.00037075    0.00016184    0.00009223
     atom    6 type  2   force =    -0.00037075   -0.00016184   -0.00009223
     atom    7 type  2   force =    -0.00037075    0.00016184   -0.00009223
     atom    8 type  2   force =     0.00037075   -0.00016184    0.00009223
     atom    9 type  2   force =    -0.00009660    0.00012455   -0.00002785
     atom   10 type  2   force =     0.00009660   -0.00012455    0.00002785
     atom   11 type  2   force =     0.00009660    0.00012455    0.00002785
     atom   12 type  2   force =    -0.00009660   -0.00012455   -0.00002785
     atom   13 type  2   force =    -0.00027510   -0.00000936    0.00013549
     atom   14 type  2   force =     0.00027510    0.00000936   -0.00013549
     atom   15 type  2   force =     0.00027510   -0.00000936   -0.00013549
     atom   16 type  2   force =    -0.00027510    0.00000936    0.00013549

     Total force =     0.001153     Total SCF correction =     0.000008

     Computing stress (Cartesian axis) and pressure

          total   stress  (Ry/bohr**3)                   (kbar)     P=        9.29
   0.00006124   0.00000000  -0.00000056            9.01        0.00       -0.08
   0.00000000   0.00006669   0.00000000            0.00        9.81        0.00
  -0.00000056   0.00000000   0.00006159           -0.08        0.00        9.06

     Energy error            =      1.4E-05 Ry
     Gradient error          =      3.7E-04 Ry/Bohr

     bfgs converged in   4 scf cycles and   3 bfgs steps
     (criteria: energy <  1.0E-04 Ry, force <  1.0E-03 Ry/Bohr)

     End of BFGS Geometry Optimization

     Final energy             =     -39.6140068307 Ry

     File ./bh3.bfgs deleted, as requested
Begin final coordinates

ATOMIC_POSITIONS (crystal)
B             0.1421475330        0.5436581385        0.6443004729
B             0.8578524670        0.4563418615        0.3556995271
B             0.8578524670        0.0436581385        0.8556995271
B             0.1421475330        0.9563418615        0.1443004729
H             0.0878937199        0.0049810536        0.3109590124
H             0.9121062801        0.9950189464        0.6890409876
H             0.9121062801        0.5049810536        0.1890409876
H             0.0878937199        0.4950189464        0.8109590124
H             0.1417569354        0.1321189147        0.0241757751
H             0.8582430646        0.8678810853        0.9758242249
H             0.8582430646        0.6321189147        0.4758242249
H             0.1417569354        0.3678810853        0.5241757751
H             0.3874343926        0.6515319688        0.6714651309
H             0.6125656074        0.3484680312        0.3285348691
H             0.6125656074        0.1515319688        0.8285348691
H             0.3874343926        0.8484680312        0.1714651309
End final coordinates

     Writing all to output data dir ./bh3.save/

     General routines

     Parallel routines

   This run was terminated on:   9:19:18   1Dec2023

   JOB DONE.
Job execution finished at: Fri Dec  1 09:19:19 IST 2023