     Program PWSCF v.7.1 starts on  1Dec2023 at 12:21:19

     Reading input from bh3.in

     Current dimensions of program PWSCF are:
     Max number of different atomic species (ntypx) = 10
     Max number of k-points (npk) =  40000
     Max angular momentum in pseudopotentials (lmaxx) =  4

     IMPORTANT: XC functional enforced from input :
     Exchange-correlation= PBE
                           (   1   4   3   4   0   0   0)
     Any further DFT definition will be discarded
     Please, verify this is what you really want

     Message from routine setup:
     using ibrav=0 with symmetry is DISCOURAGED, use correct ibrav instead

     K-points division:     npool     =       4
     R & G space division:  proc/nbgrp/npool/nimage =      36
     Subspace diagonalization in iterative solution of the eigenvalue problem:
     a serial algorithm will be used

     Using Slab Decomposition

     bravais-lattice index     =            0
     lattice parameter (alat)  =       8.1081  a.u.
     unit-cell volume          =     992.9145 (a.u.)^3
     number of atoms/cell      =           16
     number of atomic types    =            2
     number of electrons       =        24.00
     number of Kohn-Sham states=           16
     kinetic-energy cutoff     =      75.0000  Ry
     charge density cutoff     =     375.0000  Ry
     scf convergence threshold =      1.0E-08
     mixing beta               =       0.7000
     number of iterations used =            8  plain     mixing
     energy convergence thresh.=      1.0E-04
     force convergence thresh. =      1.0E-03
     press convergence thresh. =      5.0E-01
     Exchange-correlation= PBE
                           (   1   4   3   4   0   0   0)
     nstep                     =           50

     celldm(1)=   8.108059  celldm(2)=   0.000000  celldm(3)=   0.000000
     celldm(4)=   0.000000  celldm(5)=   0.000000  celldm(6)=   0.000000

     crystal axes: (cart. coord. in units of alat)
               a(1) = (   1.000000   0.000000   0.000000 )
               a(2) = (   0.000000   1.442472   0.000000 )
               a(3) = (  -0.644894   0.000000   1.291379 )

     reciprocal axes: (cart. coord. in units 2 pi/alat)
               b(1) = (  1.000000  0.000000  0.499384 )
               b(2) = (  0.000000  0.693254  0.000000 )
               b(3) = (  0.000000  0.000000  0.774366 )

     PseudoPot. # 1 for B  read from file:
     /home/garima.iitr/.cache/.es/compmat/bh3/b_pbe_v1.4.uspp.F.UPF
     MD5 check sum: cc6de2960df11db49a60e589f9ebb39b
     Pseudo is Ultrasoft + core correction, Zval =  3.0
     Generated by new atomic code, or converted to UPF format
     Using radial grid of  781 points,  4 beta functions with:
                l(1) =   0
                l(2) =   0
                l(3) =   1
                l(4) =   1
     Q(r) pseudized with  8 coefficients,  rinner =    1.100   1.100   1.100

     PseudoPot. # 2 for H  read from file:
     /home/garima.iitr/.cache/.es/compmat/bh3/H.pbe-rrkjus_psl.1.0.0.UPF
     MD5 check sum: 3f4114867bd07edc7f1424d066fc1888
     Pseudo is Ultrasoft, Zval =  1.0
     Generated using &quot;atomic&quot; code by A. Dal Corso  v.6.3MaX
     Using radial grid of  929 points,  2 beta functions with:
                l(1) =   0
                l(2) =   0
     Q(r) pseudized with 0 coefficients

     atomic species   valence    mass     pseudopotential
        B              3.00    10.81350     B ( 1.00)
        H              1.00     1.00750     H ( 1.00)

      4 Sym. Ops., with inversion, found ( 2 have fractional translation)

   Cartesian axes

     site n.     atom                  positions (alat units)
         1           B   tau(   1) = (  -0.2733579   0.7842115   0.8320364  )
         2           B   tau(   2) = (   0.6284640   0.6582602   0.4593431  )
         3           B   tau(   3) = (   0.3060171   0.0629756   1.1050328  )
         4           B   tau(   4) = (   0.0490890   1.3794961   0.1863467  )
         5           H   tau(   5) = (  -0.1126418   0.0071850   0.4015661  )
         6           H   tau(   6) = (   0.4677480   1.4352867   0.8898134  )
         7           H   tau(   7) = (   0.7901949   0.7284209   0.2441236  )
         8           H   tau(   8) = (  -0.4350887   0.7140508   1.0472558  )
         9           H   tau(   9) = (   0.1261661   0.1905778   0.0312201  )
        10           H   tau(  10) = (   0.2289400   1.2518939   1.2601593  )
        11           H   tau(  11) = (   0.5513870   0.9118136   0.6144696  )
        12           H   tau(  12) = (  -0.1962808   0.5306581   0.6769098  )
        13           H   tau(  13) = (  -0.0455893   0.9398164   0.8671163  )
        14           H   tau(  14) = (   0.4006955   0.5026553   0.4242632  )
        15           H   tau(  15) = (   0.0782486   0.2185806   1.0699529  )
        16           H   tau(  16) = (   0.2768576   1.2238911   0.2214265  )

     number of k points=    48  Marzari-Vanderbilt smearing, width (Ry)=  0.0050
                       cart. coord. in units 2pi/alat
        k(    1) = (   0.0000000   0.0000000   0.0000000), wk =   0.0133333
        k(    2) = (   0.0000000   0.0000000   0.1548731), wk =   0.0266667
        k(    3) = (   0.0000000   0.0000000   0.3097463), wk =   0.0266667
        k(    4) = (   0.0000000   0.1386509   0.0000000), wk =   0.0266667
        k(    5) = (   0.0000000   0.1386509   0.1548731), wk =   0.0533333
        k(    6) = (   0.0000000   0.1386509   0.3097463), wk =   0.0533333
        k(    7) = (   0.0000000   0.2773018   0.0000000), wk =   0.0266667
        k(    8) = (   0.0000000   0.2773018   0.1548731), wk =   0.0533333
        k(    9) = (   0.0000000   0.2773018   0.3097463), wk =   0.0533333
        k(   10) = (   0.1666667   0.0000000   0.0832306), wk =   0.0266667
        k(   11) = (   0.1666667   0.0000000   0.2381038), wk =   0.0266667
        k(   12) = (   0.1666667   0.0000000   0.3929769), wk =   0.0266667
        k(   13) = (   0.1666667   0.0000000  -0.2265157), wk =   0.0266667
        k(   14) = (   0.1666667   0.0000000  -0.0716425), wk =   0.0266667
        k(   15) = (   0.1666667   0.1386509   0.0832306), wk =   0.0533333
        k(   16) = (   0.1666667   0.1386509   0.2381038), wk =   0.0533333
        k(   17) = (   0.1666667   0.1386509   0.3929769), wk =   0.0533333
        k(   18) = (   0.1666667   0.1386509  -0.2265157), wk =   0.0533333
        k(   19) = (   0.1666667   0.1386509  -0.0716425), wk =   0.0533333
        k(   20) = (   0.1666667   0.2773018   0.0832306), wk =   0.0533333
        k(   21) = (   0.1666667   0.2773018   0.2381038), wk =   0.0533333
        k(   22) = (   0.1666667   0.2773018   0.3929769), wk =   0.0533333
        k(   23) = (   0.1666667   0.2773018  -0.2265157), wk =   0.0533333
        k(   24) = (   0.1666667   0.2773018  -0.0716425), wk =   0.0533333
        k(   25) = (   0.3333333   0.0000000   0.1664612), wk =   0.0266667
        k(   26) = (   0.3333333   0.0000000   0.3213344), wk =   0.0266667
        k(   27) = (   0.3333333   0.0000000   0.4762075), wk =   0.0266667
        k(   28) = (   0.3333333   0.0000000  -0.1432851), wk =   0.0266667
        k(   29) = (   0.3333333   0.0000000   0.0115881), wk =   0.0266667
        k(   30) = (   0.3333333   0.1386509   0.1664612), wk =   0.0533333
        k(   31) = (   0.3333333   0.1386509   0.3213344), wk =   0.0533333
        k(   32) = (   0.3333333   0.1386509   0.4762075), wk =   0.0533333
        k(   33) = (   0.3333333   0.1386509  -0.1432851), wk =   0.0533333
        k(   34) = (   0.3333333   0.1386509   0.0115881), wk =   0.0533333
        k(   35) = (   0.3333333   0.2773018   0.1664612), wk =   0.0533333
        k(   36) = (   0.3333333   0.2773018   0.3213344), wk =   0.0533333
        k(   37) = (   0.3333333   0.2773018   0.4762075), wk =   0.0533333
        k(   38) = (   0.3333333   0.2773018  -0.1432851), wk =   0.0533333
        k(   39) = (   0.3333333   0.2773018   0.0115881), wk =   0.0533333
        k(   40) = (  -0.5000000   0.0000000  -0.2496918), wk =   0.0133333
        k(   41) = (  -0.5000000   0.0000000  -0.0948187), wk =   0.0266667
        k(   42) = (  -0.5000000   0.0000000   0.0600545), wk =   0.0266667
        k(   43) = (  -0.5000000   0.1386509  -0.2496918), wk =   0.0266667
        k(   44) = (  -0.5000000   0.1386509  -0.0948187), wk =   0.0533333
        k(   45) = (  -0.5000000   0.1386509   0.0600545), wk =   0.0533333
        k(   46) = (  -0.5000000   0.2773018  -0.2496918), wk =   0.0266667
        k(   47) = (  -0.5000000   0.2773018  -0.0948187), wk =   0.0533333
        k(   48) = (  -0.5000000   0.2773018   0.0600545), wk =   0.0533333

     Initial potential from superposition of free atoms

     starting charge      23.9988, renormalised to      24.0000
     Starting wfcs are   28 randomized atomic wfcs

     Self-consistent Calculation

     iteration #  1     ecut=    75.00 Ry     beta= 0.70
     Davidson diagonalization with overlap
     ethr =  1.00E-02,  avg # of iterations =  2.9

     total energy              =     -39.46248133 Ry
     estimated scf accuracy    <       1.10467848 Ry

[...]

     End of self-consistent calculation

          k = 0.0000 0.0000 0.0000 ( 10845 PWs)   bands (ev):

   -12.6040 -12.1487  -7.1408  -6.9781  -6.3132  -6.1221  -5.3469  -4.9976
    -4.8618  -4.7207  -3.6603  -3.3015   2.0433   3.1353   4.6675   4.7877

[...]

          k =-0.5000 0.0000-0.2497 ( 10874 PWs)   bands (ev):

[...]

     the Fermi energy is     1.1240 ev

!    total energy              =     -39.61400683 Ry
     estimated scf accuracy    <          1.2E-09 Ry
     smearing contrib. (-TS)   =      -0.00000000 Ry
     internal energy E=F+TS    =     -39.61400683 Ry

     The total energy is F=E-TS. E is the sum of the following terms:
     one-electron contribution =     -16.18982426 Ry
     hartree contribution      =      13.49570312 Ry
     xc contribution           =     -20.24074085 Ry
     ewald contribution        =     -16.67914484 Ry

     convergence has been achieved in   7 iterations

     Forces acting on atoms (cartesian axes, Ry/au):

     atom    1 type  1   force =     0.00005758   -0.00001848    0.00019184
     atom    2 type  1   force =    -0.00005758    0.00001848   -0.00019184
     atom    3 type  1   force =    -0.00005758   -0.00001848   -0.00019184
     atom    4 type  1   force =     0.00005758    0.00001848    0.00019184
     atom    5 type  2   force =     0.00037014    0.00016217    0.00009323
     atom    6 type  2   force =    -0.00037014   -0.00016217   -0.00009323
     atom    7 type  2   force =    -0.00037014    0.00016217   -0.00009323
     atom    8 type  2   force =     0.00037014   -0.00016217    0.00009323
     atom    9 type  2   force =    -0.00009634    0.00012499   -0.00002761
     atom   10 type  2   force =     0.00009634   -0.00012499    0.00002761
     atom   11 type  2   force =     0.00009634    0.00012499    0.00002761
     atom   12 type  2   force =    -0.00009634   -0.00012499   -0.00002761
     atom   13 type  2   force =    -0.00027415   -0.00000869    0.00013571
[...]
H             0.9120548868        0.9950050806        0.6890320839
H             0.9120548868        0.5049949194        0.1890320839
H             0.0879451132        0.4950050806        0.8109679161
H             0.1417433535        0.1321296013        0.0241731382
H             0.8582566465        0.8678703987        0.9758268618
H             0.8582566465        0.6321296013        0.4758268618
H             0.1417433535        0.3678703987        0.5241731382
H             0.3874089395        0.6515312256        0.6714780923
H             0.6125910605        0.3484687744        0.3285219077
H             0.6125910605        0.1515312256        0.8285219077
H             0.3874089395        0.8484687744        0.1714780923

     Writing config-only to output data dir ./bh3.save/
     NEW-OLD atomic charge density approx. for the potential
     extrapolated charge   24.11331, renormalised to   24.00000

[...]

     Energy error            =      2.6E-04 Ry
     Gradient error          =      1.5E-03 Ry/Bohr
     Cell gradient error     =      7.6E+00 kbar

[...]

     enthalpy           old  =     -39.6140068300 Ry
     enthalpy           new  =     -39.6142629682 Ry

     CASE: enthalpy          _new < enthalpy          _old

[...]

     Threshold (ethr) on eigenvalues was too large:
     Diagonalizing with lowered threshold

     Davidson diagonalization with overlap
     ethr =  7.97E-08,  avg # of iterations =  1.1

[...]

     number of scf cycles    =  15
     number of bfgs steps    =  14

     enthalpy           old  =     -39.6216673561 Ry
     enthalpy           new  =     -39.6216773043 Ry

     CASE: enthalpy          _new < enthalpy          _old

     new trust radius        =       0.0028746900 bohr
     new conv_thr            =            1.0E-10 Ry

     new unit-cell volume =   1331.15188 a.u.^3 (   197.25636 Ang^3 )
     density =      0.46590 g/cm^3

[...]

ATOMIC_POSITIONS (crystal)
B             0.1338067884        0.5395069203        0.6358920572
B             0.8661932116        0.4604930797        0.3641079428
B             0.8661932116        0.0395069203        0.8641079428
B             0.1338067884        0.9604930797        0.1358920572
H             0.0916882408        0.0046661513        0.2910204426
H             0.9083117592        0.9953338487        0.7089795574
H             0.9083117592        0.5046661513        0.2089795574
H             0.0916882408        0.4953338487        0.7910204426
H             0.1299274669        0.1166183764        0.0238176650
H             0.8700725331        0.8833816236        0.9761823350
H             0.8700725331        0.6166183764        0.4761823350
H             0.1299274669        0.3833816236        0.5238176650
H             0.3545641938        0.6368746229        0.6621341315
H             0.6454358062        0.3631253771        0.3378658685
H             0.6454358062        0.1368746229        0.8378658685
H             0.3545641938        0.8631253771        0.1621341315

     Writing config-only to output data dir ./bh3.save/
     NEW-OLD atomic charge density approx. for the potential
     extrapolated charge   24.02048, renormalised to   24.00000

[...]

     Threshold (ethr) on eigenvalues was too large:
     Diagonalizing with lowered threshold

     Davidson diagonalization with overlap
     ethr =  3.83E-08,  avg # of iterations =  1.0

[...]

     Energy error            =      3.9E-06 Ry
     Gradient error          =      1.6E-04 Ry/Bohr
     Cell gradient error     =      4.4E-01 kbar

     bfgs converged in  16 scf cycles and  15 bfgs steps
     (criteria: energy <  1.0E-04 Ry, force <  1.0E-03 Ry/Bohr, cell <  5.0E-01 kbar)

     End of BFGS Geometry Optimization

     Final enthalpy           =     -39.6216812102 Ry

     File ./bh3.bfgs deleted, as requested
Begin final coordinates
     new unit-cell volume =   1331.15188 a.u.^3 (   197.25636 Ang^3 )
     density =      0.46590 g/cm^3

CELL_PARAMETERS (alat=  8.10805891)
   1.113857385   0.000000000  -0.011867227
   0.000000000   1.624450407   0.000000000
  -0.733754376   0.000000000   1.388013903

ATOMIC_POSITIONS (crystal)
B             0.1338067884        0.5395069203        0.6358920572
B             0.8661932116        0.4604930797        0.3641079428
B             0.8661932116        0.0395069203        0.8641079428
B             0.1338067884        0.9604930797        0.1358920572
H             0.0916882408        0.0046661513        0.2910204426
H             0.9083117592        0.9953338487        0.7089795574
H             0.9083117592        0.5046661513        0.2089795574
H             0.0916882408        0.4953338487        0.7910204426
H             0.1299274669        0.1166183764        0.0238176650
H             0.8700725331        0.8833816236        0.9761823350
H             0.8700725331        0.6166183764        0.4761823350
H             0.1299274669        0.3833816236        0.5238176650
H             0.3545641938        0.6368746229        0.6621341315
H             0.6454358062        0.3631253771        0.3378658685
H             0.6454358062        0.1368746229        0.8378658685
H             0.3545641938        0.8631253771        0.1621341315
End final coordinates

     Writing config-only to output data dir ./bh3.save/

     Final scf calculation at the relaxed structure.
     The G-vectors are recalculated for the final unit cell
     Results may differ from those at the preceding step.

     Using Slab Decomposition

     bravais-lattice index     =            0
     lattice parameter (alat)  =       8.1081  a.u.
     unit-cell volume          =    1331.1519 (a.u.)^3
     number of atoms/cell      =           16
     number of atomic types    =            2
     number of electrons       =        24.00
     number of Kohn-Sham states=           16
     kinetic-energy cutoff     =      75.0000  Ry
     charge density cutoff     =     375.0000  Ry
     scf convergence threshold =      1.0E-10
     mixing beta               =       0.7000
     number of iterations used =            8  plain     mixing
     press convergence thresh. =      5.0E-01
     Exchange-correlation= PBE
                           (   1   4   3   4   0   0   0)

     celldm(1)=   8.108059  celldm(2)=   0.000000  celldm(3)=   0.000000
     celldm(4)=   0.000000  celldm(5)=   0.000000  celldm(6)=   0.000000

     crystal axes: (cart. coord. in units of alat)
               a(1) = (   1.113857   0.000000  -0.011867 )
               a(2) = (   0.000000   1.624450   0.000000 )
               a(3) = (  -0.733754   0.000000   1.388014 )

     reciprocal axes: (cart. coord. in units 2 pi/alat)
               b(1) = (  0.902866  0.000000  0.477288 )
               b(2) = (  0.000000  0.615593  0.000000 )
               b(3) = (  0.007719  0.000000  0.724535 )

     PseudoPot. # 1 for B  read from file:
     /home/garima.iitr/.cache/.es/compmat/bh3/b_pbe_v1.4.uspp.F.UPF
     MD5 check sum: cc6de2960df11db49a60e589f9ebb39b
     Pseudo is Ultrasoft + core correction, Zval =  3.0
     Generated by new atomic code, or converted to UPF format
     Using radial grid of  781 points,  4 beta functions with:
                l(1) =   0
                l(2) =   0
                l(3) =   1
                l(4) =   1
     Q(r) pseudized with  8 coefficients,  rinner =    1.100   1.100   1.100

     PseudoPot. # 2 for H  read from file:
     /home/garima.iitr/.cache/.es/compmat/bh3/H.pbe-rrkjus_psl.1.0.0.UPF
     MD5 check sum: 3f4114867bd07edc7f1424d066fc1888
     Pseudo is Ultrasoft, Zval =  1.0
     Generated using &quot;atomic&quot; code by A. Dal Corso  v.6.3MaX
     Using radial grid of  929 points,  2 beta functions with:
                l(1) =   0
                l(2) =   0
     Q(r) pseudized with 0 coefficients

     atomic species   valence    mass     pseudopotential
        B              3.00    10.81350     B ( 1.00)
        H              1.00     1.00750     H ( 1.00)

      4 Sym. Ops., with inversion, found ( 2 have fractional translation)

   Cartesian axes

     site n.     atom                  positions (alat units)
         1           B   tau(   1) = (  -0.3175469   0.8764022   0.8810391  )
         2           B   tau(   2) = (   0.6976499   0.7480482   0.4951076  )
         3           B   tau(   3) = (   0.3307727   0.0641770   1.1891145  )
         4           B   tau(   4) = (   0.0493303   1.5602734   0.1870321  )
         5           H   tau(   5) = (  -0.1114099   0.0075799   0.4028523  )
         6           H   tau(   6) = (   0.4915129   1.6168705   0.9732943  )
         7           H   tau(   7) = (   0.8583901   0.8198051   0.2792874  )
         8           H   tau(   8) = (  -0.4782871   0.8046453   1.0968593  )
         9           H   tau(   9) = (   0.1272444   0.1894408   0.0315174  )
        10           H   tau(  10) = (   0.2528587   1.4350096   1.3446293  )
        11           H   tau(  11) = (   0.6197358   1.0016660   0.6506224  )
        12           H   tau(  12) = (  -0.2396328   0.6227844   0.7255243  )
        13           H   tau(  13) = (  -0.0909099   1.0345712   0.9148437  )
        14           H   tau(  14) = (   0.4710129   0.5898792   0.4613030  )
        15           H   tau(  15) = (   0.1041357   0.2223460   1.1553099  )
        16           H   tau(  16) = (   0.2759673   1.4021044   0.2208367  )

     number of k points=    48  Marzari-Vanderbilt smearing, width (Ry)=  0.0050
                       cart. coord. in units 2pi/alat
        k(    1) = (   0.0000000   0.0000000   0.0000000), wk =   0.0133333
        k(    2) = (   0.0015439   0.0000000   0.1449069), wk =   0.0266667
        k(    3) = (   0.0030877   0.0000000   0.2898138), wk =   0.0266667
        k(    4) = (   0.0000000   0.1231186   0.0000000), wk =   0.0266667
        k(    5) = (   0.0015439   0.1231186   0.1449069), wk =   0.0533333
        k(    6) = (   0.0030877   0.1231186   0.2898138), wk =   0.0533333
        k(    7) = (   0.0000000   0.2462371   0.0000000), wk =   0.0266667
        k(    8) = (   0.0015439   0.2462371   0.1449069), wk =   0.0533333
        k(    9) = (   0.0030877   0.2462371   0.2898138), wk =   0.0533333
        k(   10) = (   0.1504777   0.0000000   0.0795479), wk =   0.0266667
        k(   11) = (   0.1520215   0.0000000   0.2244549), wk =   0.0266667
        k(   12) = (   0.1535654   0.0000000   0.3693618), wk =   0.0266667
        k(   13) = (   0.1473900   0.0000000  -0.2102659), wk =   0.0266667
        k(   14) = (   0.1489338   0.0000000  -0.0653590), wk =   0.0266667
        k(   15) = (   0.1504777   0.1231186   0.0795479), wk =   0.0533333
        k(   16) = (   0.1520215   0.1231186   0.2244549), wk =   0.0533333
        k(   17) = (   0.1535654   0.1231186   0.3693618), wk =   0.0533333
        k(   18) = (   0.1473900   0.1231186  -0.2102659), wk =   0.0533333
        k(   19) = (   0.1489338   0.1231186  -0.0653590), wk =   0.0533333
        k(   20) = (   0.1504777   0.2462371   0.0795479), wk =   0.0533333
        k(   21) = (   0.1520215   0.2462371   0.2244549), wk =   0.0533333
        k(   22) = (   0.1535654   0.2462371   0.3693618), wk =   0.0533333
        k(   23) = (   0.1473900   0.2462371  -0.2102659), wk =   0.0533333
        k(   24) = (   0.1489338   0.2462371  -0.0653590), wk =   0.0533333
        k(   25) = (   0.3009554   0.0000000   0.1590959), wk =   0.0266667
        k(   26) = (   0.3024992   0.0000000   0.3040028), wk =   0.0266667
        k(   27) = (   0.3040431   0.0000000   0.4489097), wk =   0.0266667
        k(   28) = (   0.2978676   0.0000000  -0.1307179), wk =   0.0266667
        k(   29) = (   0.2994115   0.0000000   0.0141890), wk =   0.0266667
        k(   30) = (   0.3009554   0.1231186   0.1590959), wk =   0.0533333
        k(   31) = (   0.3024992   0.1231186   0.3040028), wk =   0.0533333
        k(   32) = (   0.3040431   0.1231186   0.4489097), wk =   0.0533333
        k(   33) = (   0.2978676   0.1231186  -0.1307179), wk =   0.0533333
        k(   34) = (   0.2994115   0.1231186   0.0141890), wk =   0.0533333
        k(   35) = (   0.3009554   0.2462371   0.1590959), wk =   0.0533333
        k(   36) = (   0.3024992   0.2462371   0.3040028), wk =   0.0533333
        k(   37) = (   0.3040431   0.2462371   0.4489097), wk =   0.0533333
        k(   38) = (   0.2978676   0.2462371  -0.1307179), wk =   0.0533333
        k(   39) = (   0.2994115   0.2462371   0.0141890), wk =   0.0533333
        k(   40) = (  -0.4514331   0.0000000  -0.2386438), wk =   0.0133333
        k(   41) = (  -0.4498892   0.0000000  -0.0937369), wk =   0.0266667
        k(   42) = (  -0.4483453   0.0000000   0.0511700), wk =   0.0266667
        k(   43) = (  -0.4514331   0.1231186  -0.2386438), wk =   0.0266667
        k(   44) = (  -0.4498892   0.1231186  -0.0937369), wk =   0.0533333
        k(   45) = (  -0.4483453   0.1231186   0.0511700), wk =   0.0533333
        k(   46) = (  -0.4514331   0.2462371  -0.2386438), wk =   0.0266667
        k(   47) = (  -0.4498892   0.2462371  -0.0937369), wk =   0.0533333
        k(   48) = (  -0.4483453   0.2462371   0.0511700), wk =   0.0533333

     Initial potential from superposition of free atoms

     starting charge      23.9988, renormalised to      24.0000
     Starting wfcs are   28 randomized atomic wfcs

     Self-consistent Calculation

     iteration #  1     ecut=    75.00 Ry     beta= 0.70
     Davidson diagonalization with overlap
     c_bands:  1 eigenvalues not converged
     c_bands:  1 eigenvalues not converged
     ethr =  1.00E-06,  avg # of iterations = 16.0

[...]

     total energy              =     -39.62207456 Ry
     estimated scf accuracy    <          1.3E-10 Ry

     iteration # 10     ecut=    75.00 Ry     beta= 0.70
     Davidson diagonalization with overlap
     ethr =  5.39E-13,  avg # of iterations =  2.0

     End of self-consistent calculation

[...]

          k = 0.2994 0.2462 0.0142 ( 14595 PWs)   bands (ev):

[...]

          k =-0.4483 0.2462 0.0512 ( 14555 PWs)   bands (ev):

   -13.3361 -13.3294  -7.9488  -7.9372  -7.5410  -7.5241  -6.3508  -6.3319
    -5.9212  -5.9004  -4.6662  -4.6554   1.1637   1.1897   3.1203   3.2185

     the Fermi energy is    -0.2039 ev

!    total energy              =     -39.62207456 Ry
     estimated scf accuracy    <          3.5E-12 Ry
     smearing contrib. (-TS)   =       0.00000000 Ry
     internal energy E=F+TS    =     -39.62207456 Ry

     The total energy is F=E-TS. E is the sum of the following terms:
     one-electron contribution =     -27.43236709 Ry
     hartree contribution      =      18.13894017 Ry
     xc contribution           =     -20.17989596 Ry
     ewald contribution        =     -10.14875169 Ry

     convergence has been achieved in  10 iterations

     Forces acting on atoms (cartesian axes, Ry/au):

     atom    1 type  1   force =    -0.00006562    0.00008544   -0.00008432
     atom    2 type  1   force =     0.00006562   -0.00008544    0.00008432
     atom    3 type  1   force =     0.00006562    0.00008544    0.00008432
     atom    4 type  1   force =    -0.00006562   -0.00008544   -0.00008432
     atom    5 type  2   force =     0.00005593    0.00002757    0.00001235
     atom    6 type  2   force =    -0.00005593   -0.00002757   -0.00001235
     atom    7 type  2   force =    -0.00005593    0.00002757   -0.00001235
     atom    8 type  2   force =     0.00005593   -0.00002757    0.00001235
     atom    9 type  2   force =     0.00008862   -0.00001130   -0.00004631
     atom   10 type  2   force =    -0.00008862    0.00001130    0.00004631
     atom   11 type  2   force =    -0.00008862   -0.00001130    0.00004631
     atom   12 type  2   force =     0.00008862    0.00001130   -0.00004631
     atom   13 type  2   force =     0.00011880    0.00003980    0.00016218
     atom   14 type  2   force =    -0.00011880   -0.00003980   -0.00016218
     atom   15 type  2   force =    -0.00011880    0.00003980   -0.00016218
     atom   16 type  2   force =     0.00011880   -0.00003980    0.00016218

     Total force =     0.000547     Total SCF correction =     0.000001

     Computing stress (Cartesian axis) and pressure

          total   stress  (Ry/bohr**3)                   (kbar)     P=        0.37
   0.00000272   0.00000000  -0.00000081            0.40        0.00       -0.12
   0.00000000   0.00000090   0.00000000            0.00        0.13        0.00
  -0.00000081   0.00000000   0.00000386           -0.12        0.00        0.57

     Writing all to output data dir ./bh3.save/

     General routines

     Parallel routines

   This run was terminated on:  12:21:59   1Dec2023

   JOB DONE.
Job execution finished at: Fri Dec  1 12:21:59 IST 2023