     Program PWSCF v.6.7MaX starts on  1Dec2023 at 20:55: 4

     Reading input from K3AlH6_experimental.in

     Current dimensions of program PWSCF are:
     Max number of different atomic species (ntypx) = 10
     Max number of k-points (npk) =  40000
     Max angular momentum in pseudopotentials (lmaxx) =  3
     file Al.pbe-n-kjpaw_psl.1.0.0.UPF: wavefunction(s)  3S 3P renormalized
     file K.pbe-spn-kjpaw_psl.1.0.0.UPF: wavefunction(s)  3S renormalized

     IMPORTANT: XC functional enforced from input :
     Exchange-correlation= PBE
                           (   1   4   3   4   0   0   0)
     Any further DFT definition will be discarded
     Please, verify this is what you really want

     Subspace diagonalization in iterative solution of the eigenvalue problem:
     a serial algorithm will be used

     Message from routine setup:
     using ibrav=0 with symmetry is DISCOURAGED, use correct ibrav instead

     bravais-lattice index     =            0
     lattice parameter (alat)  =      11.2914  a.u.
     unit-cell volume          =    2056.0729 (a.u.)^3
     number of atoms/cell      =           20
     number of atomic types    =            3
     number of electrons       =        72.00
     number of Kohn-Sham states=           43
     kinetic-energy cutoff     =      75.0000  Ry
     charge density cutoff     =     375.0000  Ry
     scf convergence threshold =      1.0E-08
     mixing beta               =       0.7000
     number of iterations used =            8  plain     mixing
     Exchange-correlation= PBE
                           (   1   4   3   4   0   0   0)

     celldm(1)=  11.291378  celldm(2)=   0.000000  celldm(3)=   0.000000
     celldm(4)=   0.000000  celldm(5)=   0.000000  celldm(6)=   0.000000

     crystal axes: (cart. coord. in units of alat)
               a(1) = (   1.000000   0.000000   0.000000 )
               a(2) = (   0.000000   1.006241   0.000000 )
               a(3) = (  -0.986032   0.000000   1.419371 )

     reciprocal axes: (cart. coord. in units 2 pi/alat)
               b(1) = (  1.000000 -0.000000  0.694696 )
               b(2) = (  0.000000  0.993798 -0.000000 )
               b(3) = (  0.000000  0.000000  0.704538 )

     PseudoPot. # 1 for H  read from file:
     ../../pseudopotentials/H.pbe-rrkjus_psl.1.0.0.UPF
     MD5 check sum: f52b6d4d1c606e5624b1dc7b2218f220
     Pseudo is Ultrasoft, Zval =  1.0
     Generated using "atomic" code by A. Dal Corso  v.5.1
     Using radial grid of  929 points,  2 beta functions with:
                l(1) =   0
                l(2) =   0
     Q(r) pseudized with 0 coefficients

     PseudoPot. # 2 for Al read from file:
     ../../pseudopotentials/Al.pbe-n-kjpaw_psl.1.0.0.UPF
     MD5 check sum: cfc449ca30b5f3223ec38ddd88ac046d
     Pseudo is Projector augmented-wave + core cor, Zval =  3.0
     Generated using "atomic" code by A. Dal Corso  v.5.1
     Shape of augmentation charge: PSQ
     Using radial grid of 1135 points,  6 beta functions with:
                l(1) =   0
                l(2) =   0
                l(3) =   1
                l(4) =   1
                l(5) =   2
                l(6) =   2
     Q(r) pseudized with 0 coefficients

     PseudoPot. # 3 for K  read from file:
     ../../pseudopotentials/K.pbe-spn-kjpaw_psl.1.0.0.UPF
     MD5 check sum: 7d58810084cac21f60fbe77ea2b688fd
     Pseudo is Projector augmented-wave + core cor, Zval =  9.0
     Generated using "atomic" code by A. Dal Corso  v.5.1
     Shape of augmentation charge: PSQ
     Using radial grid of 1165 points,  6 beta functions with:
                l(1) =   0
                l(2) =   0
                l(3) =   1
                l(4) =   1
                l(5) =   2
                l(6) =   2
     Q(r) pseudized with 0 coefficients

     atomic species   valence    mass     pseudopotential
        H              1.00     1.00750     H ( 1.00)
        Al             3.00    26.98100     Al( 1.00)
        K              9.00    39.09830     K ( 1.00)

      4 Sym. Ops., with inversion, found ( 2 have fractional translation)

   Cartesian axes

     site n.     atom                  positions (alat units)
         1           K   tau(   1) = (  -0.4956644   0.0284838   1.0631885  )
         2           K   tau(   2) = (   0.5096327   0.9777567   0.3561823  )
         3           K   tau(   3) = (   0.0166169   0.5316041   1.0658677  )
         4           K   tau(   4) = (  -0.0026486   0.4746364   0.3535031  )
         5           K   tau(   5) = (   0.0069842   0.0000000   0.7096854  )
         6           K   tau(   6) = (   0.5000000   0.5031203   0.0000000  )
         7           Al  tau(   7) = (   0.0000000   0.0000000   0.0000000  )
         8           Al  tau(   8) = (  -0.4930158   0.5031203   0.7096854  )
         9           H   tau(   9) = (  -0.8195883   0.2397190   1.3686029  )
        10           H   tau(  10) = (   0.8335567   0.7665215   0.0507679  )
        11           H   tau(  11) = (   0.3405408   0.7428393   0.7604532  )
        12           H   tau(  12) = (  -0.3265725   0.2634012   0.6589175  )
        13           H   tau(  13) = (  -0.2569553   0.6753195   0.6684083  )
        14           H   tau(  14) = (   0.2709237   0.3309210   0.7509624  )
        15           H   tau(  15) = (   0.7639395   0.1721993   0.0412770  )
        16           H   tau(  16) = (  -0.7499712   0.8340412   1.3780937  )
        17           H   tau(  17) = (   0.0618338   0.0195820   0.2881007  )
        18           H   tau(  18) = (  -0.0478654   0.9866585   1.1312701  )
        19           H   tau(  19) = (   0.4451504   0.5227023   0.4215847  )
        20           H   tau(  20) = (  -0.4311820   0.4835382   0.9977861  )

     number of k points=    56  Marzari-Vanderbilt smearing, width (Ry)=  0.0050
                       cart. coord. in units 2pi/alat
        k(    1) = (   0.0000000   0.0000000   0.0000000), wk =   0.0138889
        k(    2) = (   0.0000000   0.0000000   0.1761344), wk =   0.0277778
        k(    3) = (   0.0000000   0.0000000  -0.3522688), wk =   0.0138889
        k(    4) = (   0.0000000   0.1656330   0.0000000), wk =   0.0277778
        k(    5) = (   0.0000000   0.1656330   0.1761344), wk =   0.0555556
        k(    6) = (   0.0000000   0.1656330  -0.3522688), wk =   0.0277778
        k(    7) = (   0.0000000   0.3312661   0.0000000), wk =   0.0277778
        k(    8) = (   0.0000000   0.3312661   0.1761344), wk =   0.0555556
        k(    9) = (   0.0000000   0.3312661  -0.3522688), wk =   0.0277778
        k(   10) = (   0.0000000  -0.4968991   0.0000000), wk =   0.0138889
        k(   11) = (   0.0000000  -0.4968991   0.1761344), wk =   0.0277778
        k(   12) = (   0.0000000  -0.4968991  -0.3522688), wk =   0.0138889
        k(   13) = (   0.1666667   0.0000000   0.1157827), wk =   0.0277778
        k(   14) = (   0.1666667   0.0000000   0.2919171), wk =   0.0277778
        k(   15) = (   0.1666667   0.0000000  -0.2364861), wk =   0.0277778
        k(   16) = (   0.1666667   0.0000000  -0.0603517), wk =   0.0277778
        k(   17) = (   0.1666667   0.1656330   0.1157827), wk =   0.0555556
        k(   18) = (   0.1666667   0.1656330   0.2919171), wk =   0.0555556
        k(   19) = (   0.1666667   0.1656330  -0.2364861), wk =   0.0555556
        k(   20) = (   0.1666667   0.1656330  -0.0603517), wk =   0.0555556
        k(   21) = (   0.1666667   0.3312661   0.1157827), wk =   0.0555556
        k(   22) = (   0.1666667   0.3312661   0.2919171), wk =   0.0555556
        k(   23) = (   0.1666667   0.3312661  -0.2364861), wk =   0.0555556
        k(   24) = (   0.1666667   0.3312661  -0.0603517), wk =   0.0555556
        k(   25) = (   0.1666667  -0.4968991   0.1157827), wk =   0.0277778
        k(   26) = (   0.1666667  -0.4968991   0.2919171), wk =   0.0277778
        k(   27) = (   0.1666667  -0.4968991  -0.2364861), wk =   0.0277778
        k(   28) = (   0.1666667  -0.4968991  -0.0603517), wk =   0.0277778
        k(   29) = (   0.3333333   0.0000000   0.2315654), wk =   0.0277778
        k(   30) = (   0.3333333   0.0000000   0.4076998), wk =   0.0277778
        k(   31) = (   0.3333333   0.0000000  -0.1207033), wk =   0.0277778
        k(   32) = (   0.3333333   0.0000000   0.0554311), wk =   0.0277778
        k(   33) = (   0.3333333   0.1656330   0.2315654), wk =   0.0555556
        k(   34) = (   0.3333333   0.1656330   0.4076998), wk =   0.0555556
        k(   35) = (   0.3333333   0.1656330  -0.1207033), wk =   0.0555556
        k(   36) = (   0.3333333   0.1656330   0.0554311), wk =   0.0555556
        k(   37) = (   0.3333333   0.3312661   0.2315654), wk =   0.0555556
        k(   38) = (   0.3333333   0.3312661   0.4076998), wk =   0.0555556
        k(   39) = (   0.3333333   0.3312661  -0.1207033), wk =   0.0555556
        k(   40) = (   0.3333333   0.3312661   0.0554311), wk =   0.0555556
        k(   41) = (   0.3333333  -0.4968991   0.2315654), wk =   0.0277778
        k(   42) = (   0.3333333  -0.4968991   0.4076998), wk =   0.0277778
        k(   43) = (   0.3333333  -0.4968991  -0.1207033), wk =   0.0277778
        k(   44) = (   0.3333333  -0.4968991   0.0554311), wk =   0.0277778
        k(   45) = (  -0.5000000   0.0000000  -0.3473482), wk =   0.0138889
        k(   46) = (  -0.5000000   0.0000000  -0.1712138), wk =   0.0277778
        k(   47) = (  -0.5000000   0.0000000  -0.6996169), wk =   0.0138889
        k(   48) = (  -0.5000000   0.1656330  -0.3473482), wk =   0.0277778
        k(   49) = (  -0.5000000   0.1656330  -0.1712138), wk =   0.0555556
        k(   50) = (  -0.5000000   0.1656330  -0.6996169), wk =   0.0277778
        k(   51) = (  -0.5000000   0.3312661  -0.3473482), wk =   0.0277778
        k(   52) = (  -0.5000000   0.3312661  -0.1712138), wk =   0.0555556
        k(   53) = (  -0.5000000   0.3312661  -0.6996169), wk =   0.0277778
        k(   54) = (  -0.5000000  -0.4968991  -0.3473482), wk =   0.0138889
        k(   55) = (  -0.5000000  -0.4968991  -0.1712138), wk =   0.0277778
        k(   56) = (  -0.5000000  -0.4968991  -0.6996169), wk =   0.0138889

     Check: negative core charge=   -0.000002

     Initial potential from superposition of free atoms

     starting charge   71.88232, renormalised to   72.00000
     Starting wfcs are   68 randomized atomic wfcs
     Checking if some PAW data can be deallocated...

     Self-consistent Calculation

     iteration #  1     ecut=    75.00 Ry     beta= 0.70
     Davidson diagonalization with overlap
     ethr =  1.00E-02,  avg # of iterations =  6.1

     total energy              =    -771.13799898 Ry
     estimated scf accuracy    <       1.27109310 Ry

[...]

     iteration #  4     ecut=    75.00 Ry     beta= 0.70
     Davidson diagonalization with overlap
     c_bands:  2 eigenvalues not converged
     c_bands:  1 eigenvalues not converged
     ethr =  7.07E-06,  avg # of iterations =  8.0

[...]

     total energy              =    -771.38244883 Ry
     estimated scf accuracy    <       0.00000060 Ry

     iteration #  7     ecut=    75.00 Ry     beta= 0.70
     Davidson diagonalization with overlap
     ethr =  8.36E-10,  avg # of iterations =  4.3

     End of self-consistent calculation

          k = 0.0000 0.0000 0.0000 ( 22501 PWs)   bands (ev):

   -26.8840 -26.8649 -26.8588 -26.8537 -26.7418 -26.7279 -10.5973 -10.5798
   -10.4693 -10.4587 -10.4447 -10.4236 -10.4229 -10.4220 -10.4178 -10.3242
   -10.3234 -10.3193 -10.2938 -10.2141 -10.1956 -10.1897 -10.1539 -10.1382
    -3.3027  -2.8493   0.0297   0.5182   0.5217   0.5257   0.5488   0.5609
     1.7275   2.0723   2.1645   2.4676   5.5051   5.9508   7.2553   7.3090
     7.5211   8.0207   8.0215

[...]

          k = 0.3333-0.4969 0.0554 ( 22556 PWs)   bands (ev):

[...]

          k =-0.5000 0.0000-0.3473 ( 22574 PWs)   bands (ev):

[...]

          k =-0.5000-0.4969-0.6996 ( 22540 PWs)   bands (ev):

   -26.8645 -26.8645 -26.8598 -26.8598 -26.7411 -26.7411 -10.6106 -10.6106
   -10.5522 -10.5522 -10.4713 -10.4713 -10.3348 -10.3348 -10.3347 -10.3347
   -10.3172 -10.3172 -10.2861 -10.2861 -10.1719 -10.1719 -10.1380 -10.1380
    -2.8516  -2.8516   0.0306   0.0306   0.5361   0.5361   0.5449   0.5449
     1.7335   1.7335   2.3722   2.3722   6.1035   6.1035   7.8214   7.8214
     8.0990   8.0991   8.6456

     the Fermi energy is     4.3064 ev

!    total energy              =    -771.38244907 Ry
     estimated scf accuracy    <          8.1E-09 Ry
     smearing contrib. (-TS)   =       0.00000000 Ry
     internal energy E=F+TS    =    -771.38244907 Ry

     The total energy is F=E-TS. E is the sum of the following terms:
     one-electron contribution =    -133.90684694 Ry
     hartree contribution      =      88.39564937 Ry
     xc contribution           =     -81.54537958 Ry
     ewald contribution        =    -242.48591671 Ry
     one-center paw contrib.   =    -401.83995522 Ry

     convergence has been achieved in   7 iterations

     Forces acting on atoms (cartesian axes, Ry/au):

     atom    1 type  3   force =     0.00006216   -0.00047132   -0.00005792
     atom    2 type  3   force =    -0.00006216    0.00047132    0.00005792
     atom    3 type  3   force =    -0.00006216   -0.00047132    0.00005792
     atom    4 type  3   force =     0.00006216    0.00047132   -0.00005792
     atom    5 type  3   force =    -0.00000000    0.00000000   -0.00000000
     atom    6 type  3   force =     0.00000000    0.00000000    0.00000000
     atom    7 type  2   force =    -0.00000000   -0.00000000    0.00000000
     atom    8 type  2   force =     0.00000000   -0.00000000    0.00000000
     atom    9 type  1   force =     0.00188258    0.00254203   -0.00043925
     atom   10 type  1   force =    -0.00188258   -0.00254203    0.00043925
     atom   11 type  1   force =    -0.00188258    0.00254203    0.00043925
     atom   12 type  1   force =     0.00188258   -0.00254203   -0.00043925
     atom   13 type  1   force =     0.00242393    0.00204674   -0.00049644
     atom   14 type  1   force =    -0.00242393   -0.00204674    0.00049644
     atom   15 type  1   force =    -0.00242393    0.00204674    0.00049644
     atom   16 type  1   force =     0.00242393   -0.00204674   -0.00049644
     atom   17 type  1   force =     0.00082554    0.00010884    0.00317783
     atom   18 type  1   force =    -0.00082554   -0.00010884   -0.00317783
     atom   19 type  1   force =    -0.00082554    0.00010884   -0.00317783
     atom   20 type  1   force =     0.00082554   -0.00010884    0.00317783

     Total force =     0.011231     Total SCF correction =     0.000085

     Computing stress (Cartesian axis) and pressure

          total   stress  (Ry/bohr**3)                   (kbar)     P=        7.93
   0.00005318   0.00000000   0.00000007            7.82        0.00        0.01
   0.00000000   0.00005346   0.00000000            0.00        7.86        0.00
   0.00000007   0.00000000   0.00005514            0.01        0.00        8.11

     Writing output data file ./K3AlH6_experimental.save/

     General routines

     Parallel routines

   This run was terminated on:  21:11:32   1Dec2023

   JOB DONE.