     Program PWSCF v.6.7MaX starts on 15Nov2023 at 18:54:41

     Reading input from KAlH4.in

     Current dimensions of program PWSCF are:
     Max number of different atomic species (ntypx) = 10
     Max number of k-points (npk) =  40000
     Max angular momentum in pseudopotentials (lmaxx) =  3
     file Al.pbe-n-kjpaw_psl.1.0.0.UPF: wavefunction(s)  3S 3P renormalized
     file K.pbe-spn-kjpaw_psl.1.0.0.UPF: wavefunction(s)  3S renormalized

     IMPORTANT: XC functional enforced from input :
     Exchange-correlation= PBE
                           (   1   4   3   4   0   0   0)
     Any further DFT definition will be discarded
     Please, verify this is what you really want

     Subspace diagonalization in iterative solution of the eigenvalue problem:
     a serial algorithm will be used

     Message from routine setup:
     using ibrav=0 with symmetry is DISCOURAGED, use correct ibrav instead

     bravais-lattice index     =            0
     lattice parameter (alat)  =      16.5693  a.u.
     unit-cell volume          =    2461.0457 (a.u.)^3
     number of atoms/cell      =           24
     number of atomic types    =            3
     number of electrons       =        64.00
     number of Kohn-Sham states=           38
     kinetic-energy cutoff     =      75.0000  Ry
     charge density cutoff     =     375.0000  Ry
     scf convergence threshold =      1.0E-08
     mixing beta               =       0.7000
     number of iterations used =            8  plain     mixing
     Exchange-correlation= PBE
                           (   1   4   3   4   0   0   0)

     celldm(1)=  16.569251  celldm(2)=   0.000000  celldm(3)=   0.000000
     celldm(4)=   0.000000  celldm(5)=   0.000000  celldm(6)=   0.000000

     crystal axes: (cart. coord. in units of alat)
               a(1) = (   1.000000   0.000000   0.000000 )
               a(2) = (   0.000000   0.652381   0.000000 )
               a(3) = (   0.000000   0.000000   0.829296 )

     reciprocal axes: (cart. coord. in units 2 pi/alat)
               b(1) = (  1.000000  0.000000  0.000000 )
               b(2) = (  0.000000  1.532846  0.000000 )
               b(3) = (  0.000000  0.000000  1.205842 )

     PseudoPot. # 1 for Al read from file:
     ../../pseudopotentials/Al.pbe-n-kjpaw_psl.1.0.0.UPF
     MD5 check sum: cfc449ca30b5f3223ec38ddd88ac046d
     Pseudo is Projector augmented-wave + core cor, Zval =  3.0
     Generated using "atomic" code by A. Dal Corso  v.5.1
     Shape of augmentation charge: PSQ
     Using radial grid of 1135 points,  6 beta functions with:
                l(1) =   0
                l(2) =   0
                l(3) =   1
                l(4) =   1
                l(5) =   2
                l(6) =   2
     Q(r) pseudized with 0 coefficients

     PseudoPot. # 2 for H  read from file:
     ../../pseudopotentials/H.pbe-rrkjus_psl.1.0.0.UPF
     MD5 check sum: f52b6d4d1c606e5624b1dc7b2218f220
     Pseudo is Ultrasoft, Zval =  1.0
     Generated using "atomic" code by A. Dal Corso  v.5.1
     Using radial grid of  929 points,  2 beta functions with:
                l(1) =   0
                l(2) =   0
     Q(r) pseudized with 0 coefficients

     PseudoPot. # 3 for K  read from file:
     ../../pseudopotentials/K.pbe-spn-kjpaw_psl.1.0.0.UPF
     MD5 check sum: 7d58810084cac21f60fbe77ea2b688fd
     Pseudo is Projector augmented-wave + core cor, Zval =  9.0
     Generated using "atomic" code by A. Dal Corso  v.5.1
     Shape of augmentation charge: PSQ
     Using radial grid of 1165 points,  6 beta functions with:
                l(1) =   0
                l(2) =   0
                l(3) =   1
                l(4) =   1
                l(5) =   2
                l(6) =   2
     Q(r) pseudized with 0 coefficients

     atomic species   valence    mass     pseudopotential
        Al             3.00    26.98100     Al( 1.00)
        H              1.00     1.00750     H ( 1.00)
        K              9.00    39.09830     K ( 1.00)

      8 Sym. Ops., with inversion, found ( 6 have fractional translation)

   Cartesian axes

     site n.     atom                  positions (alat units)
         1           K   tau(   1) = (   0.1764569   0.1630954   0.1371422  )
         2           K   tau(   2) = (   0.3235431   0.4892861   0.5517901  )
         3           K   tau(   3) = (   0.8235431   0.4892861   0.6921536  )
         4           K   tau(   4) = (   0.6764569   0.1630954   0.2775057  )
         5           Al  tau(   5) = (   0.0687938   0.1630954   0.5634634  )
         6           Al  tau(   6) = (   0.4312062   0.4892861   0.1488155  )
         7           Al  tau(   7) = (   0.9312062   0.4892861   0.2658324  )
         8           Al  tau(   8) = (   0.5687938   0.1630954   0.6804803  )
         9           H   tau(   9) = (   0.0778535   0.0134636   0.6723922  )
        10           H   tau(  10) = (   0.4221465   0.3396543   0.2577444  )
        11           H   tau(  11) = (   0.4221465   0.6389178   0.2577444  )
        12           H   tau(  12) = (   0.9221465   0.3396543   0.1569035  )
        13           H   tau(  13) = (   0.9221465   0.6389178   0.1569035  )
        14           H   tau(  14) = (   0.5778535   0.3127271   0.5715514  )
        15           H   tau(  15) = (   0.5778535   0.0134636   0.5715514  )
        16           H   tau(  16) = (   0.0778535   0.3127271   0.6723922  )
        17           H   tau(  17) = (   0.0900178   0.4892861   0.3598955  )
        18           H   tau(  18) = (   0.4099822   0.1630954   0.7745434  )
        19           H   tau(  19) = (   0.9099822   0.1630954   0.4694003  )
        20           H   tau(  20) = (   0.5900178   0.4892861   0.0547524  )
        21           H   tau(  21) = (   0.2159413   0.1630954   0.4514109  )
        22           H   tau(  22) = (   0.2840587   0.4892861   0.0367630  )
        23           H   tau(  23) = (   0.7840587   0.4892861   0.3778849  )
        24           H   tau(  24) = (   0.7159413   0.1630954   0.7925328  )

     number of k points=    36  Marzari-Vanderbilt smearing, width (Ry)=  0.0050
                       cart. coord. in units 2pi/alat
        k(    1) = (   0.0000000   0.0000000   0.0000000), wk =   0.0166667
        k(    2) = (   0.0000000   0.0000000   0.2411685), wk =   0.0333333
        k(    3) = (   0.0000000   0.0000000   0.4823369), wk =   0.0333333
        k(    4) = (   0.0000000   0.2554743   0.0000000), wk =   0.0333333
        k(    5) = (   0.0000000   0.2554743   0.2411685), wk =   0.0666667
        k(    6) = (   0.0000000   0.2554743   0.4823369), wk =   0.0666667
        k(    7) = (   0.0000000   0.5109485   0.0000000), wk =   0.0333333
        k(    8) = (   0.0000000   0.5109485   0.2411685), wk =   0.0666667
        k(    9) = (   0.0000000   0.5109485   0.4823369), wk =   0.0666667
        k(   10) = (   0.0000000  -0.7664228   0.0000000), wk =   0.0166667
        k(   11) = (   0.0000000  -0.7664228   0.2411685), wk =   0.0333333
        k(   12) = (   0.0000000  -0.7664228   0.4823369), wk =   0.0333333
        k(   13) = (   0.2500000   0.0000000   0.0000000), wk =   0.0333333
        k(   14) = (   0.2500000   0.0000000   0.2411685), wk =   0.0666667
        k(   15) = (   0.2500000   0.0000000   0.4823369), wk =   0.0666667
        k(   16) = (   0.2500000   0.2554743   0.0000000), wk =   0.0666667
        k(   17) = (   0.2500000   0.2554743   0.2411685), wk =   0.1333333
        k(   18) = (   0.2500000   0.2554743   0.4823369), wk =   0.1333333
        k(   19) = (   0.2500000   0.5109485   0.0000000), wk =   0.0666667
        k(   20) = (   0.2500000   0.5109485   0.2411685), wk =   0.1333333
        k(   21) = (   0.2500000   0.5109485   0.4823369), wk =   0.1333333
        k(   22) = (   0.2500000  -0.7664228   0.0000000), wk =   0.0333333
        k(   23) = (   0.2500000  -0.7664228   0.2411685), wk =   0.0666667
        k(   24) = (   0.2500000  -0.7664228   0.4823369), wk =   0.0666667
        k(   25) = (  -0.5000000   0.0000000   0.0000000), wk =   0.0166667
        k(   26) = (  -0.5000000   0.0000000   0.2411685), wk =   0.0333333
        k(   27) = (  -0.5000000   0.0000000   0.4823369), wk =   0.0333333
        k(   28) = (  -0.5000000   0.2554743   0.0000000), wk =   0.0333333
        k(   29) = (  -0.5000000   0.2554743   0.2411685), wk =   0.0666667
        k(   30) = (  -0.5000000   0.2554743   0.4823369), wk =   0.0666667
        k(   31) = (  -0.5000000   0.5109485   0.0000000), wk =   0.0333333
        k(   32) = (  -0.5000000   0.5109485   0.2411685), wk =   0.0666667
        k(   33) = (  -0.5000000   0.5109485   0.4823369), wk =   0.0666667
        k(   34) = (  -0.5000000  -0.7664228   0.0000000), wk =   0.0166667
        k(   35) = (  -0.5000000  -0.7664228   0.2411685), wk =   0.0333333
        k(   36) = (  -0.5000000  -0.7664228   0.4823369), wk =   0.0333333

     Check: negative core charge=   -0.000001

     Initial potential from superposition of free atoms

     starting charge   63.91536, renormalised to   64.00000
     Starting wfcs are   64 randomized atomic wfcs
     Checking if some PAW data can be deallocated...

     Self-consistent Calculation

     iteration #  1     ecut=    75.00 Ry     beta= 0.70
     Davidson diagonalization with overlap
     ethr =  1.00E-02,  avg # of iterations =  4.1

     total energy              =    -628.95201793 Ry
     estimated scf accuracy    <       1.26985914 Ry

[...]

     iteration #  3     ecut=    75.00 Ry     beta= 0.70
     Davidson diagonalization with overlap
     c_bands:  1 eigenvalues not converged
     c_bands:  1 eigenvalues not converged
     c_bands:  1 eigenvalues not converged
     ethr =  2.15E-05,  avg # of iterations = 13.1

[...]

     iteration #  4     ecut=    75.00 Ry     beta= 0.70
     Davidson diagonalization with overlap
     c_bands:  1 eigenvalues not converged
     c_bands:  1 eigenvalues not converged
     ethr =  1.15E-06,  avg # of iterations =  7.1

[...]

     total energy              =    -629.07322436 Ry
     estimated scf accuracy    <       0.00000007 Ry

     iteration #  7     ecut=    75.00 Ry     beta= 0.70
     Davidson diagonalization with overlap
     ethr =  1.05E-10,  avg # of iterations =  4.8

     End of self-consistent calculation

          k = 0.0000 0.0000 0.0000 ( 26965 PWs)   bands (ev):

   -28.3456 -28.3424 -28.3423 -28.3411 -11.8933 -11.8815 -11.8776 -11.8750
   -11.8744 -11.8561 -11.8479 -11.8466 -11.8330 -11.8243 -11.8183 -11.8053
    -5.3428  -4.5847  -4.2583  -4.0301  -1.8541  -1.8234  -1.2446  -1.2405
    -1.2281  -1.2041  -1.2020  -0.9070  -0.8250  -0.7553  -0.7375  -0.4934
     4.5766   5.0982   5.2569   5.3736   5.4326   5.5095

[...]

          k = 0.2500-0.7664 0.4823 ( 26984 PWs)   bands (ev):

[...]

          k =-0.5000 0.0000 0.0000 ( 27002 PWs)   bands (ev):

[...]

          k =-0.5000-0.7664 0.4823 ( 27008 PWs)   bands (ev):

   -28.3428 -28.3428 -28.3428 -28.3428 -11.8889 -11.8889 -11.8889 -11.8889
   -11.8485 -11.8485 -11.8485 -11.8485 -11.8296 -11.8296 -11.8296 -11.8296
    -4.4500  -4.4500  -4.4500  -4.4500  -1.9142  -1.9142  -1.9142  -1.9142
    -1.0924  -1.0924  -1.0924  -1.0924  -0.6817  -0.6817  -0.6817  -0.6817
     5.2083   5.2083   5.2084   5.2085   6.1675   6.1676

     the Fermi energy is     2.1089 ev

!    total energy              =    -629.07322442 Ry
     estimated scf accuracy    <          5.4E-09 Ry
     smearing contrib. (-TS)   =       0.00000000 Ry
     internal energy E=F+TS    =    -629.07322442 Ry

     The total energy is F=E-TS. E is the sum of the following terms:
     one-electron contribution =    -109.51285446 Ry
     hartree contribution      =      71.33389841 Ry
     xc contribution           =     -66.61695619 Ry
     ewald contribution        =    -163.80231520 Ry
     one-center paw contrib.   =    -360.47499698 Ry

     convergence has been achieved in   7 iterations

     Forces acting on atoms (cartesian axes, Ry/au):

     atom    1 type  3   force =     0.00005943    0.00000000   -0.00015658
     atom    2 type  3   force =    -0.00005943    0.00000000   -0.00015658
     atom    3 type  3   force =    -0.00005943    0.00000000    0.00015658
     atom    4 type  3   force =     0.00005943    0.00000000    0.00015658
     atom    5 type  1   force =    -0.00035214    0.00000000   -0.00158242
     atom    6 type  1   force =     0.00035214   -0.00000000   -0.00158242
     atom    7 type  1   force =     0.00035214    0.00000000    0.00158242
     atom    8 type  1   force =    -0.00035214    0.00000000    0.00158242
     atom    9 type  2   force =     0.00065597   -0.00385642    0.00345985
     atom   10 type  2   force =    -0.00065597   -0.00385642    0.00345985
     atom   11 type  2   force =    -0.00065597    0.00385642    0.00345985
     atom   12 type  2   force =    -0.00065597   -0.00385642   -0.00345985
     atom   13 type  2   force =    -0.00065597    0.00385642   -0.00345985
     atom   14 type  2   force =     0.00065597    0.00385642   -0.00345985
     atom   15 type  2   force =     0.00065597   -0.00385642   -0.00345985
     atom   16 type  2   force =     0.00065597    0.00385642    0.00345985
     atom   17 type  2   force =     0.00404822    0.00000000    0.00190441
     atom   18 type  2   force =    -0.00404822    0.00000000    0.00190441
     atom   19 type  2   force =    -0.00404822    0.00000000   -0.00190441
     atom   20 type  2   force =     0.00404822   -0.00000000   -0.00190441
     atom   21 type  2   force =     0.00380818    0.00000000   -0.00311204
     atom   22 type  2   force =    -0.00380818    0.00000000   -0.00311204
     atom   23 type  2   force =    -0.00380818    0.00000000    0.00311204
     atom   24 type  2   force =     0.00380818    0.00000000    0.00311204

     Total force =     0.020140     Total SCF correction =     0.000058

     Computing stress (Cartesian axis) and pressure

          total   stress  (Ry/bohr**3)                   (kbar)     P=        9.33
   0.00006270   0.00000000   0.00000000            9.22        0.00        0.00
   0.00000000   0.00006317   0.00000000            0.00        9.29        0.00
   0.00000000   0.00000000   0.00006437            0.00        0.00        9.47

     Writing output data file ./KAlH4_exploring.save/

     General routines

     Parallel routines

   This run was terminated on:  19: 4:48  15Nov2023

   JOB DONE.