     Program PWSCF v.6.7MaX starts on 15Nov2023 at 19: 6:18

     Reading input from LiAlH4.in

     Current dimensions of program PWSCF are:
     Max number of different atomic species (ntypx) = 10
     Max number of k-points (npk) =  40000
     Max angular momentum in pseudopotentials (lmaxx) =  3
     file Al.pbe-n-kjpaw_psl.1.0.0.UPF: wavefunction(s)  3S 3P renormalized

     IMPORTANT: XC functional enforced from input :
     Exchange-correlation= PBE
                           (   1   4   3   4   0   0   0)
     Any further DFT definition will be discarded
     Please, verify this is what you really want

     Subspace diagonalization in iterative solution of the eigenvalue problem:
     a serial algorithm will be used

     Message from routine setup:
     using ibrav=0 with symmetry is DISCOURAGED, use correct ibrav instead

     bravais-lattice index     =            0
     lattice parameter (alat)  =       9.1877  a.u.
     unit-cell volume          =    1875.8956 (a.u.)^3
     number of atoms/cell      =           24
     number of atomic types    =            3
     number of electrons       =        40.00
     number of Kohn-Sham states=           24
     kinetic-energy cutoff     =      75.0000  Ry
     charge density cutoff     =     375.0000  Ry
     scf convergence threshold =      1.0E-08
     mixing beta               =       0.7000
     number of iterations used =            8  plain     mixing
     Exchange-correlation= PBE
                           (   1   4   3   4   0   0   0)

     celldm(1)=   9.187678  celldm(2)=   0.000000  celldm(3)=   0.000000
     celldm(4)=   0.000000  celldm(5)=   0.000000  celldm(6)=   0.000000

     crystal axes: (cart. coord. in units of alat)
               a(1) = (   1.000000   0.000000   0.000000 )
               a(2) = (   0.000000   1.609388   0.000000 )
               a(3) = (  -0.601271   0.000000   1.502901 )

     reciprocal axes: (cart. coord. in units 2 pi/alat)
               b(1) = (  1.000000 -0.000000  0.400074 )
               b(2) = (  0.000000  0.621354 -0.000000 )
               b(3) = (  0.000000  0.000000  0.665380 )

     PseudoPot. # 1 for Li read from file:
     ../../pseudopotentials/li_pbe_v1.4.uspp.F.UPF
     MD5 check sum: e912e257baa3777c20ea3d68f190483c
     Pseudo is Ultrasoft, Zval =  3.0
     Generated by new atomic code, or converted to UPF format
     Using radial grid of  751 points,  5 beta functions with:
                l(1) =   0
                l(2) =   0
                l(3) =   0
                l(4) =   1
                l(5) =   1
     Q(r) pseudized with 10 coefficients,  rinner =    1.150   1.150   1.150

     PseudoPot. # 2 for Al read from file:
     ../../pseudopotentials/Al.pbe-n-kjpaw_psl.1.0.0.UPF
     MD5 check sum: cfc449ca30b5f3223ec38ddd88ac046d
     Pseudo is Projector augmented-wave + core cor, Zval =  3.0
     Generated using "atomic" code by A. Dal Corso  v.5.1
     Shape of augmentation charge: PSQ
     Using radial grid of 1135 points,  6 beta functions with:
                l(1) =   0
                l(2) =   0
                l(3) =   1
                l(4) =   1
                l(5) =   2
                l(6) =   2
     Q(r) pseudized with 0 coefficients

     PseudoPot. # 3 for H  read from file:
     ../../pseudopotentials/H.pbe-rrkjus_psl.1.0.0.UPF
     MD5 check sum: f52b6d4d1c606e5624b1dc7b2218f220
     Pseudo is Ultrasoft, Zval =  1.0
     Generated using "atomic" code by A. Dal Corso  v.5.1
     Using radial grid of  929 points,  2 beta functions with:
                l(1) =   0
                l(2) =   0
     Q(r) pseudized with 0 coefficients

     atomic species   valence    mass     pseudopotential
        Li             3.00     6.96750     Li( 1.00)
        Al             3.00    26.98100     Al( 1.00)
        H              1.00     1.00750     H ( 1.00)

      4 Sym. Ops., with inversion, found ( 2 have fractional translation)

   Cartesian axes

     site n.     atom                  positions (alat units)
         1           Al  tau(   1) = (   0.0791786   0.3253540   1.4011698  )
         2           Al  tau(   2) = (   0.3195499   1.2840344   0.1017314  )
         3           Al  tau(   3) = (   0.0189142   1.1300482   0.8531820  )
         4           Al  tau(   4) = (   0.3798143   0.4793402   0.6497192  )
         5           Li  tau(   5) = (   0.8236907   0.8613930   0.2639996  )
         6           Li  tau(   6) = (  -0.4249621   0.7479955   1.2389016  )
         7           Li  tau(   7) = (  -0.1243264   0.0566988   0.4874510  )
         8           Li  tau(   8) = (   0.5230549   1.5526897   1.0154502  )
         9           H   tau(   9) = (   0.2228722   0.1593938   1.1486824  )
        10           H   tau(  10) = (   0.1758563   1.4499946   0.3542188  )
        11           H   tau(  11) = (  -0.1247794   0.9640880   1.1056694  )
        12           H   tau(  12) = (   0.5235079   0.6453004   0.3972318  )
        13           H   tau(  13) = (   0.6251457   1.1844777   0.1918003  )
        14           H   tau(  14) = (  -0.2264172   0.4249107   1.3111010  )
        15           H   tau(  15) = (   0.0742185   0.3797835   0.5596504  )
        16           H   tau(  16) = (   0.3245100   1.2296049   0.9432509  )
        17           H   tau(  17) = (   0.6695228   0.1329194   0.1716614  )
        18           H   tau(  18) = (  -0.2707942   1.4764690   1.3312398  )
        19           H   tau(  19) = (   0.0298415   0.9376136   0.5797892  )
        20           H   tau(  20) = (   0.3688871   0.6717748   0.9231120  )
        21           H   tau(  21) = (   0.5665305   0.2059856   0.7180411  )
        22           H   tau(  22) = (  -0.1678020   1.4034028   0.7848601  )
        23           H   tau(  23) = (   0.1328337   1.0106798   0.0334095  )
        24           H   tau(  24) = (   0.2658948   0.5987086   1.4694917  )

     number of k points=    56  Marzari-Vanderbilt smearing, width (Ry)=  0.0050
                       cart. coord. in units 2pi/alat
        k(    1) = (   0.0000000   0.0000000   0.0000000), wk =   0.0138889
        k(    2) = (   0.0000000   0.0000000   0.1108966), wk =   0.0277778
        k(    3) = (   0.0000000   0.0000000   0.2217932), wk =   0.0277778
        k(    4) = (   0.0000000   0.0000000  -0.3326899), wk =   0.0138889
        k(    5) = (   0.0000000   0.1035590   0.0000000), wk =   0.0277778
        k(    6) = (   0.0000000   0.1035590   0.1108966), wk =   0.0555556
        k(    7) = (   0.0000000   0.1035590   0.2217932), wk =   0.0555556
        k(    8) = (   0.0000000   0.1035590  -0.3326899), wk =   0.0277778
        k(    9) = (   0.0000000   0.2071180   0.0000000), wk =   0.0277778
        k(   10) = (   0.0000000   0.2071180   0.1108966), wk =   0.0555556
        k(   11) = (   0.0000000   0.2071180   0.2217932), wk =   0.0555556
        k(   12) = (   0.0000000   0.2071180  -0.3326899), wk =   0.0277778
        k(   13) = (   0.0000000  -0.3106770   0.0000000), wk =   0.0138889
        k(   14) = (   0.0000000  -0.3106770   0.1108966), wk =   0.0277778
        k(   15) = (   0.0000000  -0.3106770   0.2217932), wk =   0.0277778
        k(   16) = (   0.0000000  -0.3106770  -0.3326899), wk =   0.0138889
        k(   17) = (   0.2500000   0.0000000   0.1000185), wk =   0.0277778
        k(   18) = (   0.2500000   0.0000000   0.2109151), wk =   0.0277778
        k(   19) = (   0.2500000   0.0000000   0.3218117), wk =   0.0277778
        k(   20) = (   0.2500000   0.0000000  -0.2326714), wk =   0.0277778
        k(   21) = (   0.2500000   0.0000000  -0.1217748), wk =   0.0277778
        k(   22) = (   0.2500000   0.0000000  -0.0108782), wk =   0.0277778
        k(   23) = (   0.2500000   0.1035590   0.1000185), wk =   0.0555556
        k(   24) = (   0.2500000   0.1035590   0.2109151), wk =   0.0555556
        k(   25) = (   0.2500000   0.1035590   0.3218117), wk =   0.0555556
        k(   26) = (   0.2500000   0.1035590  -0.2326714), wk =   0.0555556
        k(   27) = (   0.2500000   0.1035590  -0.1217748), wk =   0.0555556
        k(   28) = (   0.2500000   0.1035590  -0.0108782), wk =   0.0555556
        k(   29) = (   0.2500000   0.2071180   0.1000185), wk =   0.0555556
        k(   30) = (   0.2500000   0.2071180   0.2109151), wk =   0.0555556
        k(   31) = (   0.2500000   0.2071180   0.3218117), wk =   0.0555556
        k(   32) = (   0.2500000   0.2071180  -0.2326714), wk =   0.0555556
        k(   33) = (   0.2500000   0.2071180  -0.1217748), wk =   0.0555556
        k(   34) = (   0.2500000   0.2071180  -0.0108782), wk =   0.0555556
        k(   35) = (   0.2500000  -0.3106770   0.1000185), wk =   0.0277778
        k(   36) = (   0.2500000  -0.3106770   0.2109151), wk =   0.0277778
        k(   37) = (   0.2500000  -0.3106770   0.3218117), wk =   0.0277778
        k(   38) = (   0.2500000  -0.3106770  -0.2326714), wk =   0.0277778
        k(   39) = (   0.2500000  -0.3106770  -0.1217748), wk =   0.0277778
        k(   40) = (   0.2500000  -0.3106770  -0.0108782), wk =   0.0277778
        k(   41) = (  -0.5000000   0.0000000  -0.2000369), wk =   0.0138889
        k(   42) = (  -0.5000000   0.0000000  -0.0891403), wk =   0.0277778
        k(   43) = (  -0.5000000   0.0000000   0.0217563), wk =   0.0277778
        k(   44) = (  -0.5000000   0.0000000  -0.5327268), wk =   0.0138889
        k(   45) = (  -0.5000000   0.1035590  -0.2000369), wk =   0.0277778
        k(   46) = (  -0.5000000   0.1035590  -0.0891403), wk =   0.0555556
        k(   47) = (  -0.5000000   0.1035590   0.0217563), wk =   0.0555556
        k(   48) = (  -0.5000000   0.1035590  -0.5327268), wk =   0.0277778
        k(   49) = (  -0.5000000   0.2071180  -0.2000369), wk =   0.0277778
        k(   50) = (  -0.5000000   0.2071180  -0.0891403), wk =   0.0555556
        k(   51) = (  -0.5000000   0.2071180   0.0217563), wk =   0.0555556
        k(   52) = (  -0.5000000   0.2071180  -0.5327268), wk =   0.0277778
        k(   53) = (  -0.5000000  -0.3106770  -0.2000369), wk =   0.0138889
        k(   54) = (  -0.5000000  -0.3106770  -0.0891403), wk =   0.0277778
        k(   55) = (  -0.5000000  -0.3106770   0.0217563), wk =   0.0277778
        k(   56) = (  -0.5000000  -0.3106770  -0.5327268), wk =   0.0138889

     Initial potential from superposition of free atoms

     starting charge   38.18772, renormalised to   40.00000
     Starting wfcs are   52 randomized atomic wfcs
     Checking if some PAW data can be deallocated...

     Self-consistent Calculation

     iteration #  1     ecut=    75.00 Ry     beta= 0.70
     Davidson diagonalization with overlap
     ethr =  1.00E-02,  avg # of iterations =  3.1

     total energy              =    -234.67113330 Ry
     estimated scf accuracy    <       1.05110750 Ry

[...]

     iteration #  4     ecut=    75.00 Ry     beta= 0.70
     Davidson diagonalization with overlap
     c_bands:  1 eigenvalues not converged
     c_bands:  2 eigenvalues not converged
     c_bands:  1 eigenvalues not converged
     c_bands:  1 eigenvalues not converged
     c_bands:  1 eigenvalues not converged
     c_bands:  1 eigenvalues not converged
     c_bands:  1 eigenvalues not converged
     c_bands:  1 eigenvalues not converged
     c_bands:  1 eigenvalues not converged
     ethr =  7.45E-06,  avg # of iterations = 13.8

[...]

     iteration #  5     ecut=    75.00 Ry     beta= 0.70
     Davidson diagonalization with overlap
     c_bands:  1 eigenvalues not converged
     c_bands:  1 eigenvalues not converged
     ethr =  6.75E-07,  avg # of iterations =  6.6

[...]

     total energy              =    -234.82072037 Ry
     estimated scf accuracy    <       0.00000014 Ry

     iteration #  9     ecut=    75.00 Ry     beta= 0.70
     Davidson diagonalization with overlap
     ethr =  3.46E-10,  avg # of iterations =  2.0

     End of self-consistent calculation

          k = 0.0000 0.0000 0.0000 ( 20595 PWs)   bands (ev):

   -45.2317 -45.2316 -45.2291 -45.2290  -7.1911  -6.0355  -5.8577  -5.1265
    -4.2171  -3.6046  -3.1825  -3.0304  -2.4755  -2.4727  -2.3440  -2.2258
    -1.9762  -1.8956  -1.5195  -1.3581   3.6695   4.1240   4.5021   4.6140

[...]

          k = 0.2500-0.3107-0.0109 ( 20586 PWs)   bands (ev):

[...]

          k =-0.5000 0.0000-0.2000 ( 20538 PWs)   bands (ev):

[...]

          k =-0.5000-0.3107-0.5327 ( 20512 PWs)   bands (ev):

   -45.2316 -45.2316 -45.2291 -45.2291  -6.0517  -6.0517  -5.6567  -5.6567
    -3.7857  -3.7857  -3.3446  -3.3446  -2.8312  -2.8312  -2.5588  -2.5588
    -2.1811  -2.1811  -1.8525  -1.8525   3.9704   3.9705   3.9832   3.9832

     the Fermi energy is     1.6929 ev

!    total energy              =    -234.82072038 Ry
     estimated scf accuracy    <          1.4E-09 Ry
     smearing contrib. (-TS)   =       0.00000000 Ry
     internal energy E=F+TS    =    -234.82072038 Ry

     The total energy is F=E-TS. E is the sum of the following terms:
     one-electron contribution =     -37.35891719 Ry
     hartree contribution      =      22.07667968 Ry
     xc contribution           =     -35.18014314 Ry
     ewald contribution        =     -45.59880943 Ry
     one-center paw contrib.   =    -138.75953030 Ry

     convergence has been achieved in   9 iterations

     Forces acting on atoms (cartesian axes, Ry/au):

     atom    1 type  2   force =    -0.00027877   -0.00160889   -0.00037646
     atom    2 type  2   force =     0.00027877    0.00160889    0.00037646
     atom    3 type  2   force =     0.00027877   -0.00160889    0.00037646
     atom    4 type  2   force =    -0.00027877    0.00160889   -0.00037646
     atom    5 type  1   force =    -0.00029825    0.00026865   -0.00005105
     atom    6 type  1   force =     0.00029825   -0.00026865    0.00005105
     atom    7 type  1   force =     0.00029825    0.00026865    0.00005105
     atom    8 type  1   force =    -0.00029825   -0.00026865   -0.00005105
     atom    9 type  3   force =     0.00054298   -0.00026383   -0.00035122
     atom   10 type  3   force =    -0.00054298    0.00026383    0.00035122
     atom   11 type  3   force =    -0.00054298   -0.00026383    0.00035122
     atom   12 type  3   force =     0.00054298    0.00026383   -0.00035122
     atom   13 type  3   force =     0.00092968   -0.00057984    0.00012583
     atom   14 type  3   force =    -0.00092968    0.00057984   -0.00012583
     atom   15 type  3   force =    -0.00092968   -0.00057984   -0.00012583
     atom   16 type  3   force =     0.00092968    0.00057984    0.00012583
     atom   17 type  3   force =     0.00035481   -0.00041904    0.00105383
     atom   18 type  3   force =    -0.00035481    0.00041904   -0.00105383
     atom   19 type  3   force =    -0.00035481   -0.00041904   -0.00105383
     atom   20 type  3   force =     0.00035481    0.00041904    0.00105383
     atom   21 type  3   force =     0.00209899   -0.00286723    0.00072244
     atom   22 type  3   force =    -0.00209899    0.00286723   -0.00072244
     atom   23 type  3   force =    -0.00209899   -0.00286723   -0.00072244
     atom   24 type  3   force =     0.00209899    0.00286723    0.00072244

     Total force =     0.008772     Total SCF correction =     0.000016

     Computing stress (Cartesian axis) and pressure

          total   stress  (Ry/bohr**3)                   (kbar)     P=       -0.64
  -0.00000334   0.00000000   0.00000404           -0.49        0.00        0.59
   0.00000000  -0.00000008   0.00000000            0.00       -0.01        0.00
   0.00000404   0.00000000  -0.00000971            0.59        0.00       -1.43

     Writing output data file ./LiAlH4_experimental.save/

     General routines

     Parallel routines

   This run was terminated on:  19:16:53  15Nov2023

   JOB DONE.