     Program PWSCF v.6.7MaX starts on 15Nov2023 at 19:18: 4

     Reading input from RbAlH4.in

     Current dimensions of program PWSCF are:
     Max number of different atomic species (ntypx) = 10
     Max number of k-points (npk) =  40000
     Max angular momentum in pseudopotentials (lmaxx) =  3
     Message from routine read_pp_mesh:
     mesh size missing, using the one in header
     file Al.pbe-n-kjpaw_psl.1.0.0.UPF: wavefunction(s)  3S 3P renormalized

     IMPORTANT: XC functional enforced from input :
     Exchange-correlation= PBE
                           (   1   4   3   4   0   0   0)
     Any further DFT definition will be discarded
     Please, verify this is what you really want

     Subspace diagonalization in iterative solution of the eigenvalue problem:
     a serial algorithm will be used

     Message from routine setup:
     using ibrav=0 with symmetry is DISCOURAGED, use correct ibrav instead

     bravais-lattice index     =            0
     lattice parameter (alat)  =      17.6546  a.u.
     unit-cell volume          =    2770.2535 (a.u.)^3
     number of atoms/cell      =           24
     number of atomic types    =            3
     number of electrons       =        64.00
     number of Kohn-Sham states=           38
     kinetic-energy cutoff     =      75.0000  Ry
     charge density cutoff     =     375.0000  Ry
     scf convergence threshold =      1.0E-08
     mixing beta               =       0.7000
     number of iterations used =            8  plain     mixing
     Exchange-correlation= PBE
                           (   1   4   3   4   0   0   0)

     celldm(1)=  17.654615  celldm(2)=   0.000000  celldm(3)=   0.000000
     celldm(4)=   0.000000  celldm(5)=   0.000000  celldm(6)=   0.000000

     crystal axes: (cart. coord. in units of alat)
               a(1) = (   1.000000   0.000000   0.000000 )
               a(2) = (   0.000000   0.621972   0.000000 )
               a(3) = (   0.000000   0.000000   0.809421 )

     reciprocal axes: (cart. coord. in units 2 pi/alat)
               b(1) = (  1.000000  0.000000  0.000000 )
               b(2) = (  0.000000  1.607791  0.000000 )
               b(3) = (  0.000000  0.000000  1.235452 )

     PseudoPot. # 1 for H  read from file:
     ../../pseudopotentials/H.pbe-rrkjus_psl.1.0.0.UPF
     MD5 check sum: f52b6d4d1c606e5624b1dc7b2218f220
     Pseudo is Ultrasoft, Zval =  1.0
     Generated using "atomic" code by A. Dal Corso  v.5.1
     Using radial grid of  929 points,  2 beta functions with:
                l(1) =   0
                l(2) =   0
     Q(r) pseudized with 0 coefficients

     PseudoPot. # 2 for Al read from file:
     ../../pseudopotentials/Al.pbe-n-kjpaw_psl.1.0.0.UPF
     MD5 check sum: cfc449ca30b5f3223ec38ddd88ac046d
     Pseudo is Projector augmented-wave + core cor, Zval =  3.0
     Generated using "atomic" code by A. Dal Corso  v.5.1
     Shape of augmentation charge: PSQ
     Using radial grid of 1135 points,  6 beta functions with:
                l(1) =   0
                l(2) =   0
                l(3) =   1
                l(4) =   1
                l(5) =   2
                l(6) =   2
     Q(r) pseudized with 0 coefficients

     PseudoPot. # 3 for Rb read from file:
     ../../pseudopotentials/Rb_ONCV_PBE-1.0.oncvpsp.upf
     MD5 check sum: 55a5172d6bfbce6759a58e35d43f6aa9
     Pseudo is Norm-conserving, Zval =  9.0
     Generated using ONCVPSP code by D. R. Hamann
     Using radial grid of 2308 points,  6 beta functions with:
                l(1) =   0
                l(2) =   0
                l(3) =   1
                l(4) =   1
                l(5) =   2
                l(6) =   2

     atomic species   valence    mass     pseudopotential
        H              1.00     1.00750     H ( 1.00)
        Al             3.00    26.98100     Al( 1.00)
        Rb             9.00    85.46780     Rb( 1.00)

      8 Sym. Ops., with inversion, found ( 6 have fractional translation)

   Cartesian axes

     site n.     atom                  positions (alat units)
         1           Rb  tau(   1) = (   0.1813018   0.1554929   0.5339558  )
         2           Rb  tau(   2) = (   0.3186982   0.4664787   0.1292455  )
         3           Rb  tau(   3) = (   0.8186982   0.4664787   0.2754648  )
         4           Rb  tau(   4) = (   0.6813018   0.1554929   0.6801750  )
         5           Al  tau(   5) = (   0.0618114   0.1554929   0.1508363  )
         6           Al  tau(   6) = (   0.4381887   0.4664787   0.5555465  )
         7           Al  tau(   7) = (   0.9381886   0.4664787   0.6585842  )
         8           Al  tau(   8) = (   0.5618114   0.1554929   0.2538740  )
         9           H   tau(   9) = (   0.0801161   0.0149079   0.2522769  )
        10           H   tau(  10) = (   0.4198839   0.3258937   0.6569872  )
        11           H   tau(  11) = (   0.4198839   0.6070636   0.6569872  )
        12           H   tau(  12) = (   0.9198839   0.3258937   0.5571436  )
        13           H   tau(  13) = (   0.9198839   0.6070636   0.5571436  )
        14           H   tau(  14) = (   0.5801161   0.2960779   0.1524333  )
        15           H   tau(  15) = (   0.5801161   0.0149079   0.1524333  )
        16           H   tau(  16) = (   0.0801161   0.2960779   0.2522769  )
        17           H   tau(  17) = (   0.0973685   0.4664787   0.7278765  )
        18           H   tau(  18) = (   0.4026315   0.1554929   0.3231662  )
        19           H   tau(  19) = (   0.9026315   0.1554929   0.0815440  )
        20           H   tau(  20) = (   0.5973685   0.4664787   0.4862543  )
        21           H   tau(  21) = (   0.1888183   0.1554929   0.0323832  )
        22           H   tau(  22) = (   0.3111817   0.4664787   0.4370935  )
        23           H   tau(  23) = (   0.8111817   0.4664787   0.7770373  )
        24           H   tau(  24) = (   0.6888183   0.1554929   0.3723270  )

     number of k points=    36  Marzari-Vanderbilt smearing, width (Ry)=  0.0050
                       cart. coord. in units 2pi/alat
        k(    1) = (   0.0000000   0.0000000   0.0000000), wk =   0.0166667
        k(    2) = (   0.0000000   0.0000000   0.2470903), wk =   0.0333333
        k(    3) = (   0.0000000   0.0000000   0.4941807), wk =   0.0333333
        k(    4) = (   0.0000000   0.2679651   0.0000000), wk =   0.0333333
        k(    5) = (   0.0000000   0.2679651   0.2470903), wk =   0.0666667
        k(    6) = (   0.0000000   0.2679651   0.4941807), wk =   0.0666667
        k(    7) = (   0.0000000   0.5359302   0.0000000), wk =   0.0333333
        k(    8) = (   0.0000000   0.5359302   0.2470903), wk =   0.0666667
        k(    9) = (   0.0000000   0.5359302   0.4941807), wk =   0.0666667
        k(   10) = (   0.0000000  -0.8038953   0.0000000), wk =   0.0166667
        k(   11) = (   0.0000000  -0.8038953   0.2470903), wk =   0.0333333
        k(   12) = (   0.0000000  -0.8038953   0.4941807), wk =   0.0333333
        k(   13) = (   0.2500000   0.0000000   0.0000000), wk =   0.0333333
        k(   14) = (   0.2500000   0.0000000   0.2470903), wk =   0.0666667
        k(   15) = (   0.2500000   0.0000000   0.4941807), wk =   0.0666667
        k(   16) = (   0.2500000   0.2679651   0.0000000), wk =   0.0666667
        k(   17) = (   0.2500000   0.2679651   0.2470903), wk =   0.1333333
        k(   18) = (   0.2500000   0.2679651   0.4941807), wk =   0.1333333
        k(   19) = (   0.2500000   0.5359302   0.0000000), wk =   0.0666667
        k(   20) = (   0.2500000   0.5359302   0.2470903), wk =   0.1333333
        k(   21) = (   0.2500000   0.5359302   0.4941807), wk =   0.1333333
        k(   22) = (   0.2500000  -0.8038953   0.0000000), wk =   0.0333333
        k(   23) = (   0.2500000  -0.8038953   0.2470903), wk =   0.0666667
        k(   24) = (   0.2500000  -0.8038953   0.4941807), wk =   0.0666667
        k(   25) = (  -0.5000000   0.0000000   0.0000000), wk =   0.0166667
        k(   26) = (  -0.5000000   0.0000000   0.2470903), wk =   0.0333333
        k(   27) = (  -0.5000000   0.0000000   0.4941807), wk =   0.0333333
        k(   28) = (  -0.5000000   0.2679651   0.0000000), wk =   0.0333333
        k(   29) = (  -0.5000000   0.2679651   0.2470903), wk =   0.0666667
        k(   30) = (  -0.5000000   0.2679651   0.4941807), wk =   0.0666667
        k(   31) = (  -0.5000000   0.5359302   0.0000000), wk =   0.0333333
        k(   32) = (  -0.5000000   0.5359302   0.2470903), wk =   0.0666667
        k(   33) = (  -0.5000000   0.5359302   0.4941807), wk =   0.0666667
        k(   34) = (  -0.5000000  -0.8038953   0.0000000), wk =   0.0166667
        k(   35) = (  -0.5000000  -0.8038953   0.2470903), wk =   0.0333333
        k(   36) = (  -0.5000000  -0.8038953   0.4941807), wk =   0.0333333

     Initial potential from superposition of free atoms

     starting charge   63.89162, renormalised to   64.00000
     Starting wfcs are   52 randomized atomic wfcs
     Checking if some PAW data can be deallocated...

     Self-consistent Calculation

     iteration #  1     ecut=    75.00 Ry     beta= 0.70
     Davidson diagonalization with overlap
     ethr =  1.00E-02,  avg # of iterations =  3.8

     total energy              =    -372.60731648 Ry
     estimated scf accuracy    <       1.32449664 Ry

[...]

     iteration #  4     ecut=    75.00 Ry     beta= 0.70
     Davidson diagonalization with overlap
     c_bands:  1 eigenvalues not converged
     ethr =  1.60E-06,  avg # of iterations =  7.1

[...]

     total energy              =    -372.73783946 Ry
     estimated scf accuracy    <       0.00000004 Ry

     iteration #  7     ecut=    75.00 Ry     beta= 0.70
     Davidson diagonalization with overlap
     ethr =  6.67E-11,  avg # of iterations =  5.2

     End of self-consistent calculation

          k = 0.0000 0.0000 0.0000 ( 30393 PWs)   bands (ev):

   -24.9373 -24.9332 -24.9317 -24.9306  -9.1665  -9.1159  -9.1159  -9.1110
    -9.1025  -9.0640  -9.0416  -9.0401  -9.0254  -9.0108  -9.0049  -9.0002
    -5.0412  -4.3710  -4.2178  -4.0006  -1.7880  -1.4629  -1.1611  -1.1483
    -1.1293  -1.0881  -0.9699  -0.8043  -0.7800  -0.7052  -0.6466  -0.4963
     4.6558   4.7231   5.2558   5.2608   5.3223   5.5357

[...]

          k = 0.2500-0.8039 0.4942 ( 30384 PWs)   bands (ev):

[...]

          k =-0.5000 0.0000 0.0000 ( 30360 PWs)   bands (ev):

[...]

          k =-0.5000-0.8039 0.4942 ( 30432 PWs)   bands (ev):

   -24.9330 -24.9330 -24.9330 -24.9330  -9.1462  -9.1462  -9.1462  -9.1462
    -9.0580  -9.0580  -9.0580  -9.0580  -9.0206  -9.0206  -9.0206  -9.0206
    -4.2862  -4.2862  -4.2862  -4.2862  -1.5912  -1.5912  -1.5912  -1.5912
    -1.0296  -1.0296  -1.0296  -1.0296  -0.7427  -0.7427  -0.7427  -0.7427
     5.2320   5.2320   5.2320   5.2320   6.1876   6.1876

     the Fermi energy is     2.5178 ev

!    total energy              =    -372.73783957 Ry
     estimated scf accuracy    <          2.5E-09 Ry
     smearing contrib. (-TS)   =       0.00000000 Ry
     internal energy E=F+TS    =    -372.73783957 Ry

     The total energy is F=E-TS. E is the sum of the following terms:
     one-electron contribution =     -79.12316574 Ry
     hartree contribution      =      53.44447749 Ry
     xc contribution           =     -51.46014912 Ry
     ewald contribution        =    -156.79701413 Ry
     one-center paw contrib.   =    -138.80198808 Ry

     convergence has been achieved in   7 iterations

     Forces acting on atoms (cartesian axes, Ry/au):

     atom    1 type  3   force =     0.00010511    0.00000000    0.00008749
     atom    2 type  3   force =    -0.00010511   -0.00000000    0.00008749
     atom    3 type  3   force =    -0.00010511    0.00000000   -0.00008749
     atom    4 type  3   force =     0.00010511    0.00000000   -0.00008749
     atom    5 type  2   force =    -0.00002333    0.00000000   -0.00106912
     atom    6 type  2   force =     0.00002333    0.00000000   -0.00106912
     atom    7 type  2   force =     0.00002333   -0.00000000    0.00106912
     atom    8 type  2   force =    -0.00002333    0.00000000    0.00106912
     atom    9 type  1   force =     0.00049667   -0.00355989    0.00265781
     atom   10 type  1   force =    -0.00049667   -0.00355989    0.00265781
     atom   11 type  1   force =    -0.00049667    0.00355989    0.00265781
     atom   12 type  1   force =    -0.00049667   -0.00355989   -0.00265781
     atom   13 type  1   force =    -0.00049667    0.00355989   -0.00265781
     atom   14 type  1   force =     0.00049667    0.00355989   -0.00265781
     atom   15 type  1   force =     0.00049667   -0.00355989   -0.00265781
     atom   16 type  1   force =     0.00049667    0.00355989    0.00265781
     atom   17 type  1   force =     0.00337095    0.00000000    0.00200201
     atom   18 type  1   force =    -0.00337095    0.00000000    0.00200201
     atom   19 type  1   force =    -0.00337095    0.00000000   -0.00200201
     atom   20 type  1   force =     0.00337095   -0.00000000   -0.00200201
     atom   21 type  1   force =     0.00281732    0.00000000   -0.00266905
     atom   22 type  1   force =    -0.00281732    0.00000000   -0.00266905
     atom   23 type  1   force =    -0.00281732    0.00000000    0.00266905
     atom   24 type  1   force =     0.00281732    0.00000000    0.00266905

     Total force =     0.016919     Total SCF correction =     0.000023

     Computing stress (Cartesian axis) and pressure

          total   stress  (Ry/bohr**3)                   (kbar)     P=        8.26
   0.00005428   0.00000000   0.00000000            7.98        0.00        0.00
   0.00000000   0.00005816   0.00000000            0.00        8.56        0.00
   0.00000000   0.00000000   0.00005598            0.00        0.00        8.24

     Writing output data file ./RbAlH4_experimental.save/

     General routines

     Parallel routines

   This run was terminated on:  19:28:27  15Nov2023

   JOB DONE.